Mg11 O12
1.0
   7.7048761800000003    0.0000000000000000    4.4484137700000002
   1.7121953599999999    4.8428176000000001    2.9656091800000000
  -0.0000000200000000    0.0000000000000000    5.9312143800000001
Mg O
11 12
direct
   1.0000000000000000    0.0000000000000000    0.5000000000000000 Mg
   0.0000000000000000    0.5000000000000000    0.0000000000000000 Mg
   1.0000000000000000    0.5000000000000000    0.5000000000000000 Mg
   0.3333333333333333    0.0000000000000000    1.0000000000000000 Mg
   0.3333333333333334    0.0000000000000000    0.4999999999999999 Mg
   0.3333333333333333    0.5000000000000000    0.0000000000000001 Mg
   0.3333333333333334    0.5000000000000000    0.4999999999999999 Mg
   0.6666666666666666    0.0000000000000000    1.0000000000000000 Mg
   0.6666666666666666    0.0000000000000000    0.4999999999999999 Mg
   0.6666666666666665    0.5000000000000000    0.0000000000000001 Mg
   0.6666666666666665    0.5000000000000000    0.5000000000000001 Mg
   0.1666666666666667    0.2500000000000000    0.2500000000000000 O
   0.1666666666666667    0.2500000000000000    0.7500000000000000 O
   0.1666666666666667    0.7500000000000000    0.2499999999999999 O
   0.1666666666666667    0.7500000000000000    0.7500000000000000 O
   0.4999999999999999    0.2500000000000000    0.2500000000000000 O
   0.5000000000000000    0.2500000000000000    0.7500000000000000 O
   0.5000000000000000    0.7500000000000000    0.2500000000000001 O
   0.5000000000000001    0.7500000000000000    0.7499999999999998 O
   0.8333333333333333    0.2500000000000000    0.2500000000000001 O
   0.8333333333333334    0.2500000000000000    0.7499999999999999 O
   0.8333333333333333    0.7500000000000000    0.2500000000000002 O
   0.8333333333333334    0.7500000000000000    0.7499999999999999 O
