Zn15
1.0
   5.2287202400000004    0.0000000000000000    0.0000000000000000
  -2.6143581199999999    4.5282042400000000    0.0000000000000000
   0.0000000000000000    0.0000000000000000    9.7463220400000008
Zn
15
direct
   0.1666665000000000    0.3333335000000000    0.6250000000000000 Zn
   0.1666665000000001    0.8333335000000001    0.1250000000000000 Zn
   0.1666665000000001    0.8333335000000001    0.6250000000000000 Zn
   0.6666665000000001    0.3333335000000000    0.1250000000000000 Zn
   0.6666665000000001    0.3333335000000000    0.6250000000000000 Zn
   0.6666665000000001    0.8333335000000001    0.1250000000000000 Zn
   0.6666665000000001    0.8333335000000001    0.6250000000000000 Zn
   0.3333335000000001    0.1666665000000000    0.3749999999999999 Zn
   0.3333335000000001    0.1666665000000000    0.8749999999999999 Zn
   0.3333335000000001    0.6666665000000001    0.3749999999999999 Zn
   0.3333335000000001    0.6666665000000001    0.8749999999999999 Zn
   0.8333335000000001    0.1666665000000000    0.3749999999999999 Zn
   0.8333335000000001    0.1666665000000000    0.8749999999999999 Zn
   0.8333334999999999    0.6666665000000001    0.3749999999999999 Zn
   0.8333334999999999    0.6666665000000001    0.8749999999999999 Zn
