La7 Cu4 O16
1.0
   5.3563039999999997  -13.1039479999999990    0.0000000000000000
   2.6781519999999999    6.5519739999999995    0.0000000000000000
   0.0000000000000000    0.0000000000000000    5.5433919999999999
La Cu O
7 4 16
direct
   0.6805054999999995    0.6389889999999990    0.9853459999999991 La
   0.3194944999999995    0.3610109999999991    0.0146539999999990 La
   0.8194944999999996    0.3610109999999991    0.0146539999999990 La
   0.4305055000000000    0.1389889999999999    0.5146539999999998 La
   0.9305055000000000    0.1389889999999999    0.5146539999999998 La
   0.0694945000000000    0.8610110000000000    0.4853459999999999 La
   0.5694945000000000    0.8610110000000000    0.4853459999999999 La
   0.0000000000000000    0.0000000000000000    0.0000000000000000 Cu
   0.5000000000000000    1.0000000000000000    0.0000000000000000 Cu
   0.2500000000000000    0.5000000000000000    0.4999999999999999 Cu
   0.7500000000000000    0.5000000000000000    0.4999999999999999 Cu
   0.1306169999999995    0.2387659999999990    0.7499999999999999 O
   0.6306169999999995    0.2387659999999990    0.7499999999999999 O
   0.4066100000000000    0.1867800000000000    0.9402109999999990 O
   0.9066100000000000    0.1867800000000000    0.9402109999999990 O
   0.3433900000000000    0.3132199999999999    0.4402109999999990 O
   0.8433900000000001    0.3132199999999999    0.4402109999999990 O
   0.1193829999999995    0.2612339999999990    0.2500000000000000 O
   0.6193829999999995    0.2612339999999990    0.2500000000000000 O
   0.3806170000000000    0.7387659999999989    0.7499999999999999 O
   0.8806170000000000    0.7387659999999990    0.7499999999999999 O
   0.1566100000000000    0.6867800000000001    0.5597890000000000 O
   0.6566100000000000    0.6867799999999999    0.5597890000000000 O
   0.0933900000000000    0.8132200000000001    0.0597889999999990 O
   0.5933900000000000    0.8132200000000001    0.0597889999999990 O
   0.3693829999999996    0.7612340000000002    0.2500000000000000 O
   0.8693829999999997    0.7612340000000003    0.2500000000000000 O
