B7 N8
1.0
   0.0000000000000000    3.6260019999999979    3.6260019999999979
   3.6260019999999979    0.0000000000000000    3.6260019999999979
   3.6260019999999979    3.6260019999999979    0.0000000000000000
B N
7 8
direct
   0.0000000000000000    1.0000000000000000    0.5000000000000000 B
   0.0000000000000000    0.5000000000000000    1.0000000000000000 B
   0.0000000000000000    0.5000000000000000    0.5000000000000000 B
   0.5000000000000000    0.0000000000000000    1.0000000000000000 B
   0.5000000000000000    0.0000000000000000    0.5000000000000000 B
   0.5000000000000000    0.5000000000000000    1.0000000000000000 B
   0.5000000000000000    0.5000000000000000    0.5000000000000000 B
   0.1250000000000000    0.1250000000000000    0.1250000000000000 N
   0.1250000000000000    0.1250000000000000    0.6250000000000000 N
   0.1250000000000000    0.6250000000000000    0.1250000000000000 N
   0.1249999999999999    0.6250000000000001    0.6250000000000002 N
   0.6250000000000000    0.1250000000000000    0.1250000000000000 N
   0.6250000000000001    0.1250000000000000    0.6250000000000000 N
   0.6250000000000001    0.6250000000000001    0.1249999999999999 N
   0.6250000000000000    0.6250000000000001    0.6250000000000001 N
