rhyouhua
1.0
        8.1122999191         0.0000000000         0.0000000000
       -4.0561499596         7.0254578131         0.0000000000
        0.0000000000         0.0000000000        21.6236991882
   Rh    C    O
   36    1    1
Direct
     0.000000000         0.000000000         0.002280000
     0.222210005         0.111110002         0.102980003
     0.111110002         0.222230002         0.203319997
     0.000000000         0.000000000         0.304060012
     0.333339989         0.000000000         0.002260000
     0.555559993         0.111110002         0.102980003
     0.444440007         0.222220004         0.203319997
     0.333339989         0.000000000         0.304049999
     0.666660011         0.999989986         0.002270000
     0.888899982         0.111110002         0.102969997
     0.777779996         0.222220004         0.203319997
     0.666660011         0.000000000         0.304060012
     0.000000000         0.333330005         0.002270000
     0.222210005         0.444440007         0.102990001
     0.111120000         0.555559993         0.203309998
     0.000000000         0.333330005         0.304080009
     0.333330005         0.333330005         0.002270000
     0.555559993         0.444460005         0.102980003
     0.444429994         0.555559993         0.203319997
     0.333339989         0.333330005         0.304060012
     0.666670024         0.333339989         0.002260000
     0.888899982         0.444440007         0.102990001
     0.777779996         0.555559993         0.203319997
     0.666670024         0.333339989         0.304049999
     0.999989986         0.666660011         0.002280000
     0.222210005         0.777760029         0.102990001
     0.111120000         0.888890028         0.203319997
     0.999989986         0.666670024         0.304069996
     0.333339989         0.666670024         0.002280000
     0.555559993         0.777779996         0.102980003
     0.444440007         0.888880014         0.203329995
     0.333339989         0.666679978         0.304080009
     0.666670024         0.666670024         0.002290000
     0.888899982         0.777790010         0.102969997
     0.777779996         0.888890028         0.203319997
     0.666670024         0.666660011         0.304069996
     0.330269992         0.365590006         0.384700000
     0.330190003         0.373120010         0.443940014
