rhface
1.0
        8.1122999191         0.0000000000         0.0000000000
       -4.0561499596         7.0254578131         0.0000000000
        0.0000000000         0.0000000000        21.6236991882
   Rh
   36
Direct
     0.000000000         0.000000000         0.000000000
     0.222220004         0.111110002         0.102109998
     0.111110002         0.222220004         0.204209998
     0.000000000         0.000000000         0.306320012
     0.333330005         0.000000000         0.000000000
     0.555559993         0.111110002         0.102109998
     0.444440007         0.222220004         0.204209998
     0.333330005         0.000000000         0.306320012
     0.666670024         0.000000000         0.000000000
     0.888890028         0.111110002         0.102109998
     0.777779996         0.222220004         0.204209998
     0.666670024         0.000000000         0.306320012
     0.000000000         0.333330005         0.000000000
     0.222220004         0.444440007         0.102109998
     0.111110002         0.555559993         0.204209998
     0.000000000         0.333330005         0.306320012
     0.333330005         0.333330005         0.000000000
     0.555559993         0.444440007         0.102109998
     0.444440007         0.555559993         0.204209998
     0.333330005         0.333330005         0.306320012
     0.666670024         0.333330005         0.000000000
     0.888890028         0.444440007         0.102109998
     0.777779996         0.555559993         0.204209998
     0.666670024         0.333330005         0.306320012
     0.000000000         0.666670024         0.000000000
     0.222220004         0.777779996         0.102109998
     0.111110002         0.888890028         0.204209998
     0.000000000         0.666670024         0.306320012
     0.333330005         0.666670024         0.000000000
     0.555559993         0.777779996         0.102109998
     0.444440007         0.888890028         0.204209998
     0.333330005         0.666670024         0.306320012
     0.666670024         0.666670024         0.000000000
     0.888890028         0.777779996         0.102109998
     0.777779996         0.888890028         0.204209998
     0.666670024         0.666670024         0.306320012
