Li15 S8
1.0
   6.9447159999999997    0.0000000000000000    4.0095340000000004
   2.3149039999999999    6.5475380000000003    4.0095340000000004
   0.0000000000000000    0.0000000000000000    8.0190660000000005
Li S
15 8
direct
   0.1250000000000000    0.1250000000000000    0.6250000000000000 Li
   0.1250000000000001    0.6250000000000000    0.1250000000000000 Li
   0.1250000000000001    0.6250000000000000    0.6250000000000000 Li
   0.6249999999999999    0.1250000000000000    0.1250000000000000 Li
   0.6249999999999999    0.1250000000000000    0.6250000000000000 Li
   0.6250000000000000    0.6250000000000000    0.1250000000000000 Li
   0.6250000000000000    0.6250000000000000    0.6249999999999999 Li
   0.3750000000000000    0.3750000000000000    0.3750000000000000 Li
   0.3750000000000000    0.3750000000000000    0.8750000000000000 Li
   0.3749999999999999    0.8750000000000000    0.3750000000000001 Li
   0.3749999999999999    0.8750000000000000    0.8750000000000000 Li
   0.8749999999999999    0.3750000000000000    0.3750000000000001 Li
   0.8749999999999999    0.3750000000000000    0.8750000000000000 Li
   0.8750000000000000    0.8750000000000000    0.3749999999999998 Li
   0.8750000000000000    0.8750000000000000    0.8750000000000000 Li
   0.0000000000000000    0.0000000000000000    0.0000000000000000 S
   0.0000000000000000    0.0000000000000000    0.5000000000000000 S
   0.0000000000000000    0.5000000000000000    1.0000000000000000 S
   0.0000000000000000    0.5000000000000000    0.5000000000000000 S
   0.4999999999999999    0.0000000000000000    1.0000000000000000 S
   0.4999999999999999    0.0000000000000000    0.5000000000000000 S
   0.5000000000000000    0.5000000000000000    1.0000000000000000 S
   0.5000000000000000    0.5000000000000000    0.4999999999999999 S
