ruo2face
1.0
        6.2389001846         0.0000000000         0.0000000000
        0.0000000000        12.7475996017         0.0000000000
        0.0000000000         0.0000000000        26.5114002228
   Ru    O
   32   56
Direct
     0.000200000         0.000000000         0.000000000
     0.000200000         0.250000000         0.120219998
     0.000200000         0.000000000         0.240449995
     0.000200000         0.250000000         0.360670000
     0.250019997         0.250000000         0.000020000
     0.250019997         0.000000000         0.120240003
     0.250019997         0.250000000         0.240459993
     0.250019997         0.000000000         0.360689998
     0.500199974         0.000000000         0.000000000
     0.500199974         0.250000000         0.120219998
     0.500199974         0.000000000         0.240449995
     0.500199974         0.250000000         0.360670000
     0.750020027         0.250000000         0.000020000
     0.750020027         0.000000000         0.120240003
     0.750020027         0.250000000         0.240459993
     0.750020027         0.000000000         0.360689998
     0.000200000         0.500000000         0.000000000
     0.000200000         0.750000000         0.120219998
     0.000200000         0.500000000         0.240449995
     0.000200000         0.750000000         0.360670000
     0.250019997         0.750000000         0.000020000
     0.250019997         0.500000000         0.120240003
     0.250019997         0.750000000         0.240459993
     0.250019997         0.500000000         0.360689998
     0.500199974         0.500000000         0.000000000
     0.500199974         0.750000000         0.120219998
     0.500199974         0.500000000         0.240449995
     0.500199974         0.750000000         0.360670000
     0.750020027         0.750000000         0.000020000
     0.750020027         0.500000000         0.120240003
     0.750020027         0.750000000         0.240459993
     0.750020027         0.500000000         0.360689998
     0.250039995         0.096989997         0.000030000
     0.250039995         0.346989989         0.120250002
     0.250039995         0.096989997         0.240480006
     0.250039995         0.346989989         0.360700011
     0.250039995         0.403010011         0.000030000
     0.250039995         0.153009996         0.120250002
     0.250039995         0.403010011         0.240480006
     0.250039995         0.153009996         0.360700011
     0.000180000         0.250000000         0.046720002
     0.000180000         0.000000000         0.166940004
     0.000180000         0.250000000         0.287169993
     0.000180000         0.000000000         0.073540002
     0.000180000         0.250000000         0.193759993
     0.000190000         0.000000000         0.313980013
     0.750039995         0.096989997         0.000030000
     0.750039995         0.346989989         0.120250002
     0.750039995         0.096989997         0.240480006
     0.750039995         0.346989989         0.360700011
     0.750039995         0.403010011         0.000030000
     0.750039995         0.153009996         0.120250002
     0.750039995         0.403010011         0.240480006
     0.750039995         0.153009996         0.360700011
     0.500180006         0.250000000         0.046720002
     0.500180006         0.000000000         0.166940004
     0.500180006         0.250000000         0.287169993
     0.500180006         0.000000000         0.073540002
     0.500180006         0.250000000         0.193759993
     0.500190020         0.000000000         0.313980013
     0.250039995         0.596989989         0.000030000
     0.250039995         0.846989989         0.120250002
     0.250039995         0.596989989         0.240480006
     0.250039995         0.846989989         0.360700011
     0.250039995         0.903010011         0.000030000
     0.250039995         0.653010011         0.120250002
     0.250039995         0.903010011         0.240480006
     0.250039995         0.653010011         0.360700011
     0.000180000         0.750000000         0.046720002
     0.000180000         0.500000000         0.166940004
     0.000180000         0.750000000         0.287169993
     0.000180000         0.500000000         0.073540002
     0.000180000         0.750000000         0.193759993
     0.000190000         0.500000000         0.313980013
     0.750039995         0.596989989         0.000030000
     0.750039995         0.846989989         0.120250002
     0.750039995         0.596989989         0.240480006
     0.750039995         0.846989989         0.360700011
     0.750039995         0.903010011         0.000030000
     0.750039995         0.653010011         0.120250002
     0.750039995         0.903010011         0.240480006
     0.750039995         0.653010011         0.360700011
     0.500180006         0.750000000         0.046720002
     0.500180006         0.500000000         0.166940004
     0.500180006         0.750000000         0.287169993
     0.500180006         0.500000000         0.073540002
     0.500180006         0.750000000         0.193759993
     0.500190020         0.500000000         0.313980013
