ruo2youhua
1.0
        6.2389001846         0.0000000000         0.0000000000
        0.0000000000        12.7475996017         0.0000000000
        0.0000000000         0.0000000000        26.5114002228
   Ru    O    C
   32   57    1
Direct
     0.000080000         0.000000000         0.999870002
     0.000100000         0.250000000         0.121270001
     0.000100000         0.000000000         0.239380002
     0.000210000         0.250000000         0.360980004
     0.250000000         0.250010014         0.003090000
     0.250039995         0.000010000         0.118929997
     0.250039995         0.250000000         0.241880000
     0.249919996         0.000000000         0.357380003
     0.500109971         0.000010000         0.999859989
     0.500100017         0.250000000         0.121270001
     0.500109971         0.000000000         0.239380002
     0.500180006         0.249990001         0.361000001
     0.749979973         0.250010014         0.003090000
     0.750029981         0.000000000         0.118910000
     0.750029981         0.250000000         0.241880000
     0.750299990         0.000000000         0.357400000
     0.000120000         0.500000000         0.999800026
     0.000070000         0.750000000         0.121260002
     0.000110000         0.499989986         0.239370003
     0.000270000         0.750000000         0.360969990
     0.250070006         0.749989986         0.003080000
     0.250059992         0.500000000         0.118890002
     0.250039995         0.750000000         0.241870001
     0.249960005         0.499989986         0.357360005
     0.500109971         0.500010014         0.999809980
     0.500069976         0.750000000         0.121250004
     0.500119984         0.500000000         0.239360005
     0.500259995         0.750000000         0.360980004
     0.750069976         0.749989986         0.003080000
     0.750060022         0.500010014         0.118890002
     0.750039995         0.750000000         0.241870001
     0.750289977         0.500000000         0.357389987
     0.250180006         0.098619998         0.994579971
     0.250079989         0.347050011         0.120030001
     0.250079989         0.097039998         0.240610003
     0.250209987         0.348749995         0.366270006
     0.250200003         0.401380002         0.994579971
     0.250039995         0.152950004         0.120030001
     0.250090003         0.402949989         0.240610003
     0.250200003         0.151250005         0.366259992
     0.000020000         0.250000000         0.046720002
     0.000030000         0.000000000         0.166370004
     0.000080000         0.250000000         0.288470000
     0.000050000         0.000010000         0.072370000
     0.000070000         0.250000000         0.194380000
     0.000090000         0.000000000         0.313809991
     0.750209987         0.098630004         0.994589984
     0.750090003         0.347070009         0.120030001
     0.750069976         0.097039998         0.240610003
     0.750169992         0.348749995         0.366270006
     0.750199974         0.401369989         0.994579971
     0.750090003         0.152940005         0.120030001
     0.750069976         0.402960002         0.240610003
     0.750159979         0.151240006         0.366259992
     0.500020027         0.250000000         0.046730001
     0.500020027         0.000000000         0.166370004
     0.500079989         0.250000000         0.288470000
     0.500039995         0.000000000         0.072360002
     0.500069976         0.250000000         0.194380000
     0.500150025         0.000000000         0.313820004
     0.250230014         0.598630011         0.994589984
     0.250039995         0.847050011         0.120010003
     0.250079989         0.597029984         0.240610003
     0.250239998         0.848739982         0.366270006
     0.250209987         0.901380002         0.994599998
     0.250039995         0.652949989         0.120010003
     0.250070006         0.902970016         0.240610003
     0.250250012         0.651250005         0.366279989
     0.000030000         0.750000000         0.046709999
     0.000050000         0.500000000         0.166360006
     0.000100000         0.750000000         0.288480014
     0.000070000         0.499989986         0.072339997
     0.000060000         0.750000000         0.194370002
     0.000120000         0.500000000         0.313809991
     0.750209987         0.598640025         0.994579971
     0.750029981         0.847050011         0.120010003
     0.750069976         0.597029984         0.240610003
     0.750240028         0.848739982         0.366279989
     0.750209987         0.901380002         0.994589984
     0.750069976         0.652949989         0.120010003
     0.750069976         0.902960002         0.240610003
     0.750230014         0.651250005         0.366279989
     0.500140011         0.750000000         0.046709999
     0.500039995         0.500000000         0.166360006
     0.500100017         0.750000000         0.288480014
     0.500060022         0.500000000         0.072339997
     0.500039995         0.750000000         0.194360003
     0.500159979         0.500000000         0.313820004
     0.497359991         0.754710019         0.471769989
     0.509109974         0.755940020         0.425669998
