Li7 Fe8 As8
1.0
   7.3453296799999999    0.0000000000000000    0.0000000000000000
   0.0000000000000000    7.3453296799999999    0.0000000000000000
   0.0000000000000000    0.0000000000000000    6.5766616500000001
Li Fe As
7 8 8
direct
   0.1250000000000000    0.6250000000000000    0.8434660200000000 Li
   0.6250000000000000    0.1250000000000000    0.8434660200000000 Li
   0.6250000000000000    0.6250000000000000    0.8434660200000000 Li
   0.3750000000000000    0.3750000000000000    0.1565339800000000 Li
   0.3750000000000000    0.8750000000000000    0.1565339800000000 Li
   0.8750000000000000    0.3750000000000000    0.1565339800000000 Li
   0.8750000000000000    0.8750000000000000    0.1565339800000000 Li
   0.3750000000000000    0.1250000000000000    0.5000000000000000 Fe
   0.3750000000000000    0.6250000000000000    0.5000000000000000 Fe
   0.8750000000000000    0.1250000000000000    0.5000000000000000 Fe
   0.8750000000000000    0.6250000000000000    0.5000000000000000 Fe
   0.1250000000000000    0.3750000000000000    0.5000000000000000 Fe
   0.1250000000000000    0.8750000000000000    0.5000000000000000 Fe
   0.6250000000000000    0.3750000000000000    0.5000000000000000 Fe
   0.6250000000000000    0.8750000000000000    0.5000000000000000 Fe
   0.1250000000000000    0.1250000000000000    0.2491647400000000 As
   0.1250000000000000    0.6250000000000000    0.2491647400000000 As
   0.6250000000000000    0.1250000000000000    0.2491647400000000 As
   0.6250000000000000    0.6250000000000000    0.2491647400000000 As
   0.3750000000000000    0.3750000000000000    0.7508352600000001 As
   0.3750000000000000    0.8750000000000000    0.7508352600000001 As
   0.8750000000000000    0.3750000000000000    0.7508352600000001 As
   0.8750000000000000    0.8750000000000000    0.7508352600000001 As
