Li7 Co8 O16
1.0
   9.4139421399999996   -2.8112565800000002   -0.0089990800000000
   9.4139421399999996    2.8112565800000002   -0.0089990800000000
   8.5790091400000001    0.0000000000000000    4.7881245799999999
Li Co O
7 8 16
direct
   1.0000000000000000    1.0000000000000000    0.5000000000000000 Li
   0.0000000000000000    0.5000000000000000    0.0000000000000000 Li
   1.0000000000000000    0.5000000000000000    0.5000000000000000 Li
   0.5000000000000000    0.0000000000000000    0.0000000000000000 Li
   0.5000000000000000    1.0000000000000000    0.5000000000000000 Li
   0.5000000000000000    0.5000000000000000    0.0000000000000000 Li
   0.5000000000000000    0.5000000000000000    0.5000000000000000 Li
   0.2500000000000000    0.2500000000000000    0.2500000000000000 Co
   0.2499999999999999    0.2499999999999999    0.7500000000000001 Co
   0.2499999999999999    0.7499999999999999    0.2500000000000000 Co
   0.2500000000000001    0.7500000000000000    0.7500000000000000 Co
   0.7499999999999999    0.2499999999999999    0.2500000000000000 Co
   0.7500000000000000    0.2500000000000001    0.7500000000000000 Co
   0.7500000000000001    0.7500000000000001    0.2500000000000000 Co
   0.7500000000000000    0.7500000000000000    0.7499999999999999 Co
   0.3799965999999995    0.3799965999999995    0.3799965999999996 O
   0.3799965999999995    0.3799965999999995    0.8799965999999996 O
   0.3799965999999996    0.8799965999999997    0.3799965999999995 O
   0.3799965999999995    0.8799965999999995    0.8799965999999996 O
   0.8799965999999997    0.3799965999999996    0.3799965999999995 O
   0.8799965999999995    0.3799965999999995    0.8799965999999996 O
   0.8799965999999996    0.8799965999999996    0.3799965999999996 O
   0.8799965999999996    0.8799965999999996    0.8799965999999997 O
   0.1200034000000000    0.1200034000000000    0.1200034000000000 O
   0.1200034000000000    0.1200034000000000    0.6200034000000000 O
   0.1200034000000000    0.6200034000000001    0.1200034000000000 O
   0.1200034000000000    0.6200034000000000    0.6200034000000000 O
   0.6200034000000001    0.1200034000000000    0.1200034000000000 O
   0.6200034000000000    0.1200034000000000    0.6200034000000000 O
   0.6200034000000000    0.6200034000000000    0.1200034000000000 O
   0.6200033999999999    0.6200033999999999    0.6200034000000000 O
