Ba7 Ti8 O24
1.0
   9.8149827399999996   -0.0000000200000000   -5.6655832799999999
  -3.2703921800000000    9.2541019799999997   -5.6655832799999999
   0.0006577000000000    0.0009303600000000    5.6683737699999996
Ba Ti O
7 8 24
direct
   0.3749999999999999    0.6249999999999999    0.4999999999999998 Ba
   0.8750000000000001    0.1250000000000000    0.5000000000000001 Ba
   0.8750000000000000    0.6250000000000000    0.4999999999999999 Ba
   0.1250000000000000    0.3749999999999999    0.4999999999999999 Ba
   0.1250000000000000    0.8750000000000000    0.4999999999999999 Ba
   0.6250000000000000    0.3750000000000000    0.5000000000000000 Ba
   0.6249999999999999    0.8749999999999999    0.4999999999999997 Ba
   0.2500000000000000    0.2500000000000000    1.0000000000000000 Ti
   0.2500000000000000    0.7499999999999999    0.9999999999999998 Ti
   0.7500000000000000    0.2500000000000000    0.0000000000000000 Ti
   0.7499999999999999    0.7499999999999999    0.9999999999999999 Ti
   0.0000000000000000    0.0000000000000000    0.0000000000000000 Ti
   1.0000000000000000    0.4999999999999999    0.9999999999999999 Ti
   0.5000000000000000    0.0000000000000000    0.0000000000000000 Ti
   0.5000000000000000    0.4999999999999999    0.9999999999999999 Ti
   0.3752302350000001    0.1252302350000000    0.0000000000000001 O
   0.3752302350000000    0.6252302349999999    0.9999999999999998 O
   0.8752302350000001    0.1252302350000000    0.0000000000000000 O
   0.8752302350000001    0.6252302350000000    0.9999999999999998 O
   0.3747697650000000    0.3752302350000000    0.9999999999999999 O
   0.3747697650000000    0.8752302350000000    0.9999999999999999 O
   0.8747697649999999    0.3752302350000000    0.9999999999999999 O
   0.8747697650000000    0.8752302350000000    0.9999999999999999 O
   0.1252302350000000    0.1247697650000000    1.0000000000000000 O
   0.1252302350000000    0.6247697649999999    0.9999999999999998 O
   0.6252302350000001    0.1247697650000000    0.9999999999999999 O
   0.6252302350000000    0.6247697649999999    0.9999999999999999 O
   0.1247697650000000    0.3747697650000000    0.9999999999999999 O
   0.1247697650000000    0.8747697650000000    0.9999999999999998 O
   0.6247697650000000    0.3747697650000000    0.9999999999999999 O
   0.6247697650000000    0.8747697649999999    0.9999999999999999 O
   0.1250000000000000    0.1250000000000000    0.5000000000000000 O
   0.1250000000000000    0.6249999999999999    0.4999999999999999 O
   0.6250000000000001    0.1250000000000000    0.5000000000000000 O
   0.6250000000000000    0.6250000000000000    0.4999999999999999 O
   0.3750000000000000    0.3749999999999999    0.5000000000000000 O
   0.3750000000000000    0.8749999999999999    0.4999999999999997 O
   0.8750000000000000    0.3750000000000000    0.4999999999999999 O
   0.8750000000000000    0.8750000000000000    0.4999999999999998 O
