Li7 Ti10 O24
1.0
   4.1622096800000001    4.1760421499999998   -0.0097910100000000
  -4.1622075499999998    4.1760400200000003   -0.0097942700000000
   0.0000065100000000    4.0852367599999999   12.5189845000000002
Li Ti O
7 10 24
direct
   0.6289990100000000    0.3709997700000000    0.2499999900000000 Li
   0.0374117000000000    0.3022709500000000    0.4164384600000000 Li
   0.9625905500000002    0.6977281099999999    0.5835614400000000 Li
   0.4999998700000001    0.0000001900000000    0.4999999899999999 Li
   0.3710007499999999    0.6290004200000000    0.7499998300000000 Li
   0.6977280900000000    0.9625895300000000    0.0835621800000000 Li
   0.9999998000000000    0.5000000699999998    0.0000002500000000 Li
   0.1573128600000000    0.6657807900000000    0.1622142300000000 Ti
   0.1706081900000000    0.1616782900000000    0.6570601700000001 Ti
   0.5000001200000000    0.5000015900000000    0.0000006800000000 Ti
   0.6657832399999999    0.1573122999999999    0.6622119900000000 Ti
   0.8383269100000001    0.8293898099999999    0.8429385700000001 Ti
   0.8426844700000001    0.3342156499999999    0.8377878999999990 Ti
   0.8293912500000001    0.8383267500000001    0.3429390900000000 Ti
   0.1616746000000000    0.1706072100000000    0.1570605800000000 Ti
   0.3342165800000000    0.8426871600000001    0.3377878200000000 Ti
   0.5000025700000000    0.4999998500000000    0.4999991699999999 Ti
   0.0887716699999999    0.6186753399999999    0.3232047999999990 O
   0.2609169299999999    0.2588163399999999    0.5106949500000000 O
   0.4135001999999998    0.9514599499999999    0.6686010600000000 O
   0.5822060800000000    0.6019949900000000    0.3417323600000000 O
   0.7242036500000000    0.2583463600000001    0.5126897300000001 O
   0.6186734699999999    0.0887693499999999    0.8232036200000000 O
   0.6019920100000000    0.5822033800000000    0.8417340899999999 O
   0.7416529600000000    0.2757957799999999    0.9873093100000000 O
   0.7411846199999998    0.7390830800000000    0.9893045800000000 O
   0.9141154799999998    0.9385446699999997    0.6720647300000000 O
   0.0485399900000000    0.5864981100000000    0.8313986800000001 O
   0.0614555400000000    0.0858845000000000    0.8279351599999999 O
   0.9514603400000000    0.4135000800000000    0.1686021200000000 O
   0.9385444100000000    0.9141147500000000    0.1720652200000000 O
   0.0858849600000000    0.0614561000000000    0.3279350799999999 O
   0.2583464500000000    0.7242028400000000    0.0126920700000000 O
   0.2588157699999999    0.2609177999999999    0.0106950999999990 O
   0.3813252800000000    0.9112289800000000    0.1767954100000000 O
   0.3980053400000000    0.4177941600000000    0.1582673100000000 O
   0.2757972399999999    0.7416542500000001    0.4873083900000000 O
   0.5864987599999999    0.0485410700000000    0.3313983899999999 O
   0.4177968100000000    0.3980078799999999    0.6582658300000001 O
   0.7390829000000000    0.7411851199999999    0.4893046400000000 O
   0.9112292499999999    0.3813254799999998    0.6767955600000000 O
