Li7 Nb8 O24
1.0
   5.0804330000000002   -2.6424240000000001    0.0000000000000000
  10.1608660000000004    5.2848480000000002    0.0000000000000000
   7.4121240000000004    0.0000000000000000    8.7311660000000000
Li Nb O
7 8 24
direct
   0.6378100000000001    0.3189050000000000    0.8189050000000001 Li
   0.6378100000000002    0.8189050000000001    0.3189050000000000 Li
   0.6378100000000001    0.8189050000000001    0.8189050000000001 Li
   0.3621900000000001    0.1810950000000000    0.1810950000000000 Li
   0.3621900000000000    0.1810950000000000    0.6810950000000000 Li
   0.3621900000000001    0.6810950000000000    0.1810950000000000 Li
   0.3621899999999998    0.6810949999999999    0.6810950000000000 Li
   0.8556090000000000    0.4278045000000000    0.4278045000000000 Nb
   0.8556090000000001    0.4278045000000000    0.9278044999999999 Nb
   0.8556090000000002    0.9278045000000000    0.4278045000000000 Nb
   0.8556089999999998    0.9278044999999999    0.9278044999999999 Nb
   0.1443910000000000    0.0721955000000000    0.0721955000000000 Nb
   0.1443910000000000    0.0721955000000000    0.5721955000000000 Nb
   0.1443910000000000    0.5721955000000000    0.0721955000000000 Nb
   0.1443910000000000    0.5721955000000000    0.5721955000000000 Nb
   0.7839160000000001    0.0229184999999995    0.2189255000000000 O
   0.7839160000000002    0.0229184999999995    0.7189255000000000 O
   0.7839160000000002    0.5229184999999995    0.2189255000000000 O
   0.7839160000000002    0.5229184999999994    0.7189255000000000 O
   0.4378510000000000    0.3919580000000000    0.0229184999999995 O
   0.4378509999999999    0.3919579999999999    0.5229184999999995 O
   0.4378510000000000    0.8919580000000000    0.0229184999999995 O
   0.4378510000000000    0.8919580000000000    0.5229184999999995 O
   0.0458369999999989    0.2189255000000000    0.3919580000000000 O
   0.0458369999999989    0.2189255000000000    0.8919580000000000 O
   0.0458369999999989    0.7189255000000000    0.3919580000000000 O
   0.0458369999999990    0.7189255000000000    0.8919580000000000 O
   0.2160840000000002    0.4770815000000001    0.2810745000000000 O
   0.2160839999999999    0.4770814999999999    0.7810745000000000 O
   0.2160840000000001    0.9770814999999999    0.2810745000000000 O
   0.2160840000000000    0.9770814999999998    0.7810745000000000 O
   0.5621490000000000    0.1080420000000000    0.4770815000000000 O
   0.5621489999999999    0.1080420000000000    0.9770815000000002 O
   0.5621490000000000    0.6080420000000000    0.4770815000000000 O
   0.5621489999999997    0.6080420000000000    0.9770815000000002 O
   0.9541630000000001    0.2810745000000001    0.1080420000000000 O
   0.9541629999999999    0.2810744999999999    0.6080420000000001 O
   0.9541630000000001    0.7810745000000000    0.1080420000000000 O
   0.9541629999999999    0.7810745000000000    0.6080420000000001 O
