Ni26
1.0
   6.3842500199999996    0.0000000000000000    3.6859482899999998
   2.1280823400000002    6.0191306400000002    3.6859482899999998
   0.0000000000000000    0.0000000000000000    7.3718965499999998
Ni
26
direct
   0.0000000000000000    0.0000000000000000    0.3333333333333334 Ni
   0.0000000000000000    0.0000000000000000    0.6666666666666667 Ni
   1.0000000000000000    0.3333333333333333    1.0000000000000000 Ni
   1.0000000000000000    0.3333333333333333    0.3333333333333333 Ni
   1.0000000000000000    0.3333333333333333    0.6666666666666666 Ni
   1.0000000000000000    0.6666666666666666    1.0000000000000000 Ni
   1.0000000000000000    0.6666666666666666    0.3333333333333333 Ni
   1.0000000000000000    0.6666666666666666    0.6666666666666666 Ni
   0.3333333333333334    0.0000000000000000    1.0000000000000000 Ni
   0.3333333333333334    0.0000000000000000    0.3333333333333333 Ni
   0.3333333333333334    0.0000000000000000    0.6666666666666666 Ni
   0.3333333333333334    0.3333333333333333    1.0000000000000000 Ni
   0.3333333333333334    0.3333333333333333    0.3333333333333333 Ni
   0.3333333333333334    0.3333333333333333    0.6666666666666666 Ni
   0.3333333333333333    0.6666666666666666    1.0000000000000000 Ni
   0.3333333333333333    0.6666666666666666    0.3333333333333333 Ni
   0.3333333333333333    0.6666666666666666    0.6666666666666665 Ni
   0.6666666666666667    0.0000000000000000    1.0000000000000000 Ni
   0.6666666666666667    0.0000000000000000    0.3333333333333333 Ni
   0.6666666666666667    0.0000000000000000    0.6666666666666666 Ni
   0.6666666666666666    0.3333333333333333    1.0000000000000000 Ni
   0.6666666666666666    0.3333333333333333    0.3333333333333333 Ni
   0.6666666666666666    0.3333333333333333    0.6666666666666665 Ni
   0.6666666666666667    0.6666666666666666    1.0000000000000000 Ni
   0.6666666666666667    0.6666666666666666    0.3333333333333333 Ni
   0.6666666666666667    0.6666666666666666    0.6666666666666666 Ni
