Ca7 F16
1.0
   6.7557559999999999    0.0000000000000000    3.9004379999999998
   2.2519179999999999    6.3693879999999998    3.9004379999999998
   0.0000000000000000    0.0000000000000000    7.8008759999999997
Ca F
7 16
direct
   0.0000000000000000    0.0000000000000000    0.4999999999999999 Ca
   0.0000000000000000    0.5000000000000000    0.0000000000000000 Ca
   0.0000000000000000    0.5000000000000000    0.5000000000000000 Ca
   0.5000000000000000    0.0000000000000000    0.0000000000000000 Ca
   0.5000000000000000    0.0000000000000000    0.5000000000000000 Ca
   0.5000000000000000    0.5000000000000000    0.0000000000000000 Ca
   0.5000000000000000    0.5000000000000000    0.5000000000000000 Ca
   0.3750000000000000    0.3750000000000000    0.3750000000000000 F
   0.3750000000000000    0.3750000000000000    0.8749999999999999 F
   0.3749999999999999    0.8750000000000000    0.3750000000000001 F
   0.3749999999999999    0.8750000000000000    0.8750000000000000 F
   0.8750000000000001    0.3750000000000000    0.3749999999999999 F
   0.8750000000000001    0.3750000000000000    0.8749999999999999 F
   0.8750000000000001    0.8750000000000000    0.3750000000000000 F
   0.8750000000000001    0.8750000000000000    0.8750000000000001 F
   0.1250000000000000    0.1250000000000000    0.1250000000000000 F
   0.1250000000000000    0.1250000000000000    0.6250000000000000 F
   0.1250000000000000    0.6250000000000000    0.1250000000000000 F
   0.1250000000000000    0.6250000000000000    0.6250000000000000 F
   0.6250000000000001    0.1250000000000000    0.1250000000000000 F
   0.6250000000000001    0.1250000000000000    0.6250000000000000 F
   0.6250000000000000    0.6250000000000000    0.1250000000000001 F
   0.6250000000000000    0.6250000000000000    0.6250000000000000 F
