Al15 N16
1.0
   6.2571760000000003    0.0000000000000000    0.0000000000000000
  -3.1285879999999979    5.4188739999999997    0.0000000000000000
   0.0000000000000000    0.0000000000000000   10.0339100000000006
Al N
15 16
direct
   0.3333335000000001    0.1666665000000000    0.7496435000000000 Al
   0.3333335000000001    0.6666665000000001    0.2496435000000000 Al
   0.3333335000000001    0.6666665000000001    0.7496435000000000 Al
   0.8333335000000001    0.1666665000000000    0.2496435000000000 Al
   0.8333335000000001    0.1666665000000000    0.7496435000000000 Al
   0.8333335000000001    0.6666665000000001    0.2496435000000000 Al
   0.8333335000000001    0.6666665000000001    0.7496435000000000 Al
   0.1666665000000000    0.3333335000000000    0.4996434999999995 Al
   0.1666665000000000    0.3333335000000000    0.9996434999999995 Al
   0.1666665000000001    0.8333335000000002    0.4996434999999995 Al
   0.1666665000000001    0.8333335000000002    0.9996434999999995 Al
   0.6666665000000001    0.3333335000000000    0.4996434999999995 Al
   0.6666665000000001    0.3333335000000000    0.9996434999999995 Al
   0.6666665000000002    0.8333335000000002    0.4996434999999995 Al
   0.6666665000000002    0.8333335000000002    0.9996434999999995 Al
   0.3333335000000001    0.1666665000000000    0.4403565000000000 N
   0.3333335000000001    0.1666665000000000    0.9403565000000000 N
   0.3333335000000001    0.6666665000000001    0.4403565000000000 N
   0.3333335000000001    0.6666665000000001    0.9403565000000000 N
   0.8333335000000001    0.1666665000000000    0.4403565000000000 N
   0.8333335000000001    0.1666665000000000    0.9403565000000000 N
   0.8333335000000001    0.6666665000000001    0.4403565000000000 N
   0.8333335000000001    0.6666665000000001    0.9403565000000000 N
   0.1666665000000000    0.3333335000000000    0.1903564999999995 N
   0.1666665000000000    0.3333335000000000    0.6903564999999996 N
   0.1666665000000001    0.8333335000000002    0.1903564999999995 N
   0.1666665000000001    0.8333335000000002    0.6903564999999996 N
   0.6666665000000001    0.3333335000000000    0.1903564999999995 N
   0.6666665000000001    0.3333335000000000    0.6903564999999996 N
   0.6666665000000002    0.8333335000000002    0.1903564999999995 N
   0.6666665000000002    0.8333335000000002    0.6903564999999996 N
