Mg23
1.0
   9.5160711599999992    0.0000000000000000    0.0000000000000000
  -3.1720227200000002    5.4941048200000004    0.0000000000000000
   0.0000000000000000    0.0000000000000000   10.2824097999999999
Mg
23
direct
   0.1111110000000000    0.3333335000000000    0.6250000000000000 Mg
   0.1111110000000000    0.8333335000000001    0.1250000000000000 Mg
   0.1111110000000000    0.8333335000000001    0.6250000000000000 Mg
   0.4444443333333333    0.3333335000000000    0.1250000000000000 Mg
   0.4444443333333333    0.3333335000000000    0.6250000000000000 Mg
   0.4444443333333333    0.8333335000000001    0.1250000000000000 Mg
   0.4444443333333333    0.8333335000000001    0.6250000000000000 Mg
   0.7777776666666666    0.3333335000000000    0.1250000000000000 Mg
   0.7777776666666666    0.3333335000000000    0.6250000000000000 Mg
   0.7777776666666666    0.8333335000000001    0.1250000000000000 Mg
   0.7777776666666666    0.8333335000000001    0.6250000000000000 Mg
   0.2222223333333333    0.1666665000000000    0.3750000000000000 Mg
   0.2222223333333333    0.1666665000000000    0.8750000000000001 Mg
   0.2222223333333333    0.6666665000000001    0.3750000000000000 Mg
   0.2222223333333333    0.6666665000000001    0.8750000000000001 Mg
   0.5555556666666667    0.1666665000000000    0.3750000000000000 Mg
   0.5555556666666667    0.1666665000000000    0.8750000000000001 Mg
   0.5555556666666666    0.6666665000000001    0.3750000000000000 Mg
   0.5555556666666666    0.6666665000000001    0.8750000000000001 Mg
   0.8888889999999999    0.1666665000000000    0.3750000000000000 Mg
   0.8888889999999999    0.1666665000000000    0.8750000000000001 Mg
   0.8888889999999999    0.6666665000000001    0.3750000000000000 Mg
   0.8888889999999999    0.6666665000000001    0.8750000000000001 Mg
