Cr35
1.0
  -3.6360896699999996    6.2978947800000000    5.1424345200000001
  -3.6362942999999999   -6.2978949000000002    5.1422906699999995
   4.8481886200000002    0.0001161200000000    3.4281956999999998
Cr
35
direct
   0.1666666500000000    0.1666666500000000    0.7500000050000000 Cr
   0.1666666499999999    0.4999999833333333    0.2500000049999999 Cr
   0.1666666500000000    0.4999999833333332    0.7500000050000000 Cr
   0.1666666499999999    0.8333333166666667    0.2500000050000000 Cr
   0.1666666499999999    0.8333333166666667    0.7500000049999999 Cr
   0.4999999833333333    0.1666666500000001    0.2500000050000001 Cr
   0.4999999833333333    0.1666666500000000    0.7500000050000001 Cr
   0.4999999833333332    0.4999999833333333    0.2500000049999999 Cr
   0.4999999833333333    0.4999999833333333    0.7500000050000000 Cr
   0.4999999833333333    0.8333333166666667    0.2500000049999999 Cr
   0.4999999833333333    0.8333333166666665    0.7500000049999999 Cr
   0.8333333166666665    0.1666666500000001    0.2500000050000001 Cr
   0.8333333166666665    0.1666666500000001    0.7500000050000001 Cr
   0.8333333166666665    0.4999999833333333    0.2500000050000000 Cr
   0.8333333166666665    0.4999999833333332    0.7500000050000000 Cr
   0.8333333166666665    0.8333333166666667    0.2500000049999998 Cr
   0.8333333166666665    0.8333333166666665    0.7500000049999999 Cr
   0.0000000166666667    0.0000000166666667    0.9999999950000000 Cr
   0.0000000166666667    0.0000000166666667    0.4999999950000000 Cr
   0.0000000166666666    0.3333333500000000    0.9999999949999999 Cr
   0.0000000166666666    0.3333333499999999    0.4999999949999999 Cr
   0.0000000166666666    0.6666666833333332    0.9999999949999998 Cr
   0.0000000166666666    0.6666666833333332    0.4999999949999998 Cr
   0.3333333500000000    0.0000000166666667    0.9999999950000000 Cr
   0.3333333500000000    0.0000000166666667    0.4999999950000000 Cr
   0.3333333499999999    0.3333333500000000    0.9999999949999999 Cr
   0.3333333500000000    0.3333333500000000    0.4999999950000000 Cr
   0.3333333500000000    0.6666666833333332    0.9999999949999999 Cr
   0.3333333500000000    0.6666666833333332    0.4999999949999999 Cr
   0.6666666833333332    0.0000000166666667    0.9999999950000000 Cr
   0.6666666833333332    0.0000000166666667    0.4999999950000001 Cr
   0.6666666833333332    0.3333333500000000    0.9999999949999999 Cr
   0.6666666833333332    0.3333333500000000    0.4999999950000000 Cr
   0.6666666833333331    0.6666666833333332    0.9999999950000000 Cr
   0.6666666833333331    0.6666666833333332    0.4999999949999998 Cr
