Cu26
1.0
   6.5721596099999999    0.0000000000000000    3.7944374400000003
   2.1907208699999998    6.1962931799999996    3.7944374400000003
   0.0000000000000000    0.0000000000000000    7.5888748499999998
Cu
26
direct
   0.0000000000000000    0.0000000000000000    0.3333333333333333 Cu
   0.0000000000000000    0.0000000000000000    0.6666666666666665 Cu
   1.0000000000000000    0.3333333333333333    1.0000000000000000 Cu
   1.0000000000000000    0.3333333333333333    0.3333333333333333 Cu
   1.0000000000000000    0.3333333333333333    0.6666666666666666 Cu
   1.0000000000000000    0.6666666666666666    1.0000000000000000 Cu
   1.0000000000000000    0.6666666666666666    0.3333333333333333 Cu
   1.0000000000000000    0.6666666666666666    0.6666666666666666 Cu
   0.3333333333333333    0.0000000000000000    0.0000000000000000 Cu
   0.3333333333333333    0.0000000000000000    0.3333333333333333 Cu
   0.3333333333333333    0.0000000000000000    0.6666666666666666 Cu
   0.3333333333333333    0.3333333333333333    0.0000000000000000 Cu
   0.3333333333333333    0.3333333333333333    0.3333333333333334 Cu
   0.3333333333333333    0.3333333333333333    0.6666666666666666 Cu
   0.3333333333333333    0.6666666666666666    0.0000000000000000 Cu
   0.3333333333333333    0.6666666666666666    0.3333333333333333 Cu
   0.3333333333333333    0.6666666666666666    0.6666666666666667 Cu
   0.6666666666666666    0.0000000000000000    0.0000000000000000 Cu
   0.6666666666666666    0.0000000000000000    0.3333333333333334 Cu
   0.6666666666666666    0.0000000000000000    0.6666666666666666 Cu
   0.6666666666666667    0.3333333333333333    0.0000000000000000 Cu
   0.6666666666666667    0.3333333333333333    0.3333333333333333 Cu
   0.6666666666666667    0.3333333333333333    0.6666666666666667 Cu
   0.6666666666666665    0.6666666666666666    0.0000000000000001 Cu
   0.6666666666666665    0.6666666666666666    0.3333333333333333 Cu
   0.6666666666666665    0.6666666666666666    0.6666666666666667 Cu
