ptyouhua
1.0
        8.4153995514         0.0000000000         0.0000000000
       -4.2076997757         7.2879497945         0.0000000000
        0.0000000000         0.0000000000        21.8712005615
   Pt    C    O
   36    1    1
Direct
     0.999989986         0.000000000         0.999870002
     0.222220004         0.111110002         0.105230004
     0.111110002         0.222220004         0.208910003
     0.000000000         0.000000000         0.314310014
     0.333339989         0.000000000         0.999880016
     0.555559993         0.111110002         0.105240002
     0.444449991         0.222230002         0.208910003
     0.333330005         0.000000000         0.314319998
     0.666670024         0.000000000         0.999880016
     0.888890028         0.111110002         0.105240002
     0.777779996         0.222220004         0.208910003
     0.666670024         0.000000000         0.314310014
     0.000000000         0.333330005         0.999880016
     0.222220004         0.444449991         0.105240002
     0.111110002         0.555559993         0.208910003
     0.000000000         0.333339989         0.314310014
     0.333339989         0.333339989         0.999880016
     0.555559993         0.444449991         0.105230004
     0.444440007         0.555559993         0.208910003
     0.333330005         0.333339989         0.314310014
     0.666670024         0.333330005         0.999880016
     0.888890028         0.444440007         0.105240002
     0.777779996         0.555559993         0.208910003
     0.666670024         0.333330005         0.314319998
     0.000000000         0.666670024         0.999880016
     0.222220004         0.777779996         0.105240002
     0.111110002         0.888890028         0.208910003
     0.000000000         0.666660011         0.314310014
     0.333330005         0.666670024         0.999880016
     0.555559993         0.777779996         0.105230004
     0.444440007         0.888890028         0.208910003
     0.333330005         0.666670024         0.314310014
     0.666670024         0.666670024         0.999880016
     0.888890028         0.777779996         0.105230004
     0.777779996         0.888890028         0.208910003
     0.666670024         0.666670024         0.314310014
     0.318379998         0.352420002         0.380349994
     0.318289995         0.359679997         0.438919991
