pdface
1.0
        8.3485002518         0.0000000000         0.0000000000
       -4.1742501259         7.2300133015         0.0000000000
        0.0000000000         0.0000000000        21.8166007996
   Pd
   36
Direct
     0.000000000         0.000000000         0.000000000
     0.222220004         0.111110002         0.104149997
     0.111110002         0.222220004         0.208299994
     0.000000000         0.000000000         0.312449992
     0.333330005         0.000000000         0.000000000
     0.555559993         0.111110002         0.104149997
     0.444440007         0.222220004         0.208299994
     0.333330005         0.000000000         0.312449992
     0.666670024         0.000000000         0.000000000
     0.888890028         0.111110002         0.104149997
     0.777779996         0.222220004         0.208299994
     0.666670024         0.000000000         0.312449992
     0.000000000         0.333330005         0.000000000
     0.222220004         0.444440007         0.104149997
     0.111110002         0.555559993         0.208299994
     0.000000000         0.333330005         0.312449992
     0.333330005         0.333330005         0.000000000
     0.555559993         0.444440007         0.104149997
     0.444440007         0.555559993         0.208299994
     0.333330005         0.333330005         0.312449992
     0.666670024         0.333330005         0.000000000
     0.888890028         0.444440007         0.104149997
     0.777779996         0.555559993         0.208299994
     0.666670024         0.333330005         0.312449992
     0.000000000         0.666670024         0.000000000
     0.222220004         0.777779996         0.104149997
     0.111110002         0.888890028         0.208299994
     0.000000000         0.666670024         0.312449992
     0.333330005         0.666670024         0.000000000
     0.555559993         0.777779996         0.104149997
     0.444440007         0.888890028         0.208299994
     0.333330005         0.666670024         0.312449992
     0.666670024         0.666670024         0.000000000
     0.888890028         0.777779996         0.104149997
     0.777779996         0.888890028         0.208299994
     0.666670024         0.666670024         0.312449992
