Ti15
1.0
   5.8714624799999999    0.0000000000000000    0.0000000000000000
  -2.9357312400000000    5.0848388199999999    0.0000000000000000
   0.0000000000000000    0.0000000000000000    9.2817123000000006
Ti
15
direct
   0.1666665000000000    0.3333335000000000    0.6250000000000000 Ti
   0.1666665000000000    0.8333334999999999    0.1250000000000000 Ti
   0.1666665000000000    0.8333334999999999    0.6250000000000000 Ti
   0.6666664999999999    0.3333335000000000    0.1250000000000000 Ti
   0.6666664999999999    0.3333335000000000    0.6250000000000000 Ti
   0.6666665000000001    0.8333334999999999    0.1250000000000000 Ti
   0.6666665000000001    0.8333334999999999    0.6250000000000000 Ti
   0.3333335000000000    0.1666665000000000    0.3750000000000000 Ti
   0.3333335000000000    0.1666665000000000    0.8750000000000001 Ti
   0.3333335000000000    0.6666665000000001    0.3750000000000000 Ti
   0.3333335000000000    0.6666665000000001    0.8750000000000001 Ti
   0.8333334999999999    0.1666665000000000    0.3750000000000000 Ti
   0.8333334999999999    0.1666665000000000    0.8750000000000001 Ti
   0.8333335000000001    0.6666665000000001    0.3750000000000000 Ti
   0.8333335000000001    0.6666665000000001    0.8750000000000001 Ti
