Te11 Pb12
1.0
  12.0180414899999981    0.0000000600000000    6.9386205600000004
   2.6706779400000000    7.5538124199999999    4.6257470400000003
   0.0000000000000000    0.0000000000000000    9.2514940800000005
Te Pb
11 12
direct
   0.0000000000000000    0.0000000000000000    0.5000000000000000 Te
   0.0000000000000000    0.4999999999999999    0.0000000000000000 Te
   0.0000000000000000    0.4999999999999999    0.5000000000000000 Te
   0.3333333333333333    1.0000000000000000    0.0000000000000001 Te
   0.3333333333333333    1.0000000000000000    0.5000000000000001 Te
   0.3333333333333333    0.4999999999999999    0.0000000000000001 Te
   0.3333333333333333    0.4999999999999999    0.5000000000000001 Te
   0.6666666666666665    1.0000000000000000    0.0000000000000001 Te
   0.6666666666666665    1.0000000000000000    0.5000000000000001 Te
   0.6666666666666665    0.4999999999999999    0.0000000000000002 Te
   0.6666666666666665    0.4999999999999999    0.5000000000000002 Te
   0.1666666666666666    0.2500000000000000    0.2500000000000001 Pb
   0.1666666666666666    0.2500000000000000    0.7500000000000001 Pb
   0.1666666666666667    0.7499999999999999    0.2500000000000001 Pb
   0.1666666666666667    0.7499999999999999    0.7500000000000001 Pb
   0.4999999999999999    0.2500000000000000    0.2500000000000001 Pb
   0.4999999999999999    0.2500000000000000    0.7500000000000001 Pb
   0.4999999999999999    0.7499999999999999    0.2500000000000002 Pb
   0.4999999999999999    0.7499999999999999    0.7500000000000002 Pb
   0.8333333333333333    0.2499999999999999    0.2500000000000003 Pb
   0.8333333333333333    0.2499999999999999    0.7500000000000003 Pb
   0.8333333333333333    0.7500000000000000    0.2500000000000002 Pb
   0.8333333333333333    0.7500000000000000    0.7500000000000002 Pb
