Co7 Sb24
1.0
  14.7837211800000006   -0.0000501600000000   -5.2268195799999999
  -3.6959497799999999    6.4016173800000002   -2.6134510099999999
   0.0000234700000000   -0.0000123200000000    7.8402927599999996
Co Sb
7 24
direct
   0.7499991100000000    0.4999992600000001    0.4999990200000000 Co
   0.0000002450000000    0.5000018200000002    0.0000007600000000 Co
   0.5000002450000000    0.5000018200000002    0.0000007600000001 Co
   0.9999999700000000    0.9999996200000000    0.5000011499999999 Co
   0.4999999700000001    0.9999996200000000    0.5000011499999999 Co
   0.2500004700000000    0.9999996600000001    0.0000002600000001 Co
   0.7500004699999999    0.9999996600000002    0.0000002600000000 Co
   0.2462961400000000    0.1587492500000000    0.3338642100000000 Sb
   0.7462961400000000    0.1587492500000000    0.3338642099999999 Sb
   0.0793628150000000    0.6661346000000000    0.8248887799999999 Sb
   0.5793628150000000    0.6661346000000000    0.8248887799999999 Sb
   0.1669200300000000    0.1751095700000000    0.8412473799999999 Sb
   0.6669200300000000    0.1751095700000000    0.8412473800000000 Sb
   0.4206276899999999    0.6661526200000000    0.5074053700000000 Sb
   0.9206276900000001    0.6661526200000000    0.5074053700000000 Sb
   0.3330799300000000    0.8248872700000002    0.1587530600000001 Sb
   0.8330799300000000    0.8248872700000002    0.1587530600000000 Sb
   0.4206371950000000    0.3338666199999999    0.1751099600000000 Sb
   0.9206371950000001    0.3338666200000000    0.1751099600000000 Sb
   0.3330788350000000    0.5074053600000000    0.8412602599999999 Sb
   0.8330788350000002    0.5074053600000000    0.8412602600000000 Sb
   0.1669200950000000    0.4925922800000000    0.1587366500000000 Sb
   0.6669200950000000    0.4925922800000000    0.1587366500000000 Sb
   0.0793709500000000    0.3338463199999999    0.4925947199999999 Sb
   0.5793709500000001    0.3338463200000000    0.4925947199999999 Sb
   0.4124517300000000    0.1587542300000000    0.6661576599999999 Sb
   0.9124517300000001    0.1587542300000000    0.6661576600000000 Sb
   0.0875495950000000    0.8412499100000000    0.3338447900000000 Sb
   0.5875495950000000    0.8412499100000000    0.3338447900000001 Sb
   0.2537046999999999    0.8412526000000000    0.6661349799999999 Sb
   0.7537047000000001    0.8412525999999999    0.6661349800000000 Sb
