Bi7 Te12
1.0
  21.6553485200000004   -4.4181301199999998    0.1085220200000000
  21.6553485200000004    4.4181301199999998    0.1085220200000000
  10.3579504300000007    0.0000000000000000    3.8515324799999999
Bi Te
7 12
direct
   0.1984148850000001    0.6984148850000000    0.3968297700000000 Bi
   0.6984148850000002    0.1984148850000000    0.3968297700000000 Bi
   0.6984148850000003    0.6984148850000002    0.3968297700000000 Bi
   0.3015851150000002    0.3015851150000001    0.6031702300000000 Bi
   0.3015851150000002    0.8015851150000001    0.6031702300000000 Bi
   0.8015851150000002    0.3015851150000001    0.6031702300000000 Bi
   0.8015851150000003    0.8015851150000001    0.6031702300000000 Bi
   0.1084038700000000    0.1084038700000000    0.2168077400000000 Te
   0.1084038700000001    0.6084038700000000    0.2168077400000000 Te
   0.6084038700000001    0.1084038700000000    0.2168077400000000 Te
   0.6084038700000002    0.6084038700000001    0.2168077400000000 Te
   0.0000000000000000    0.0000000000000000    0.0000000000000000 Te
   0.0000000000000001    0.5000000000000000    1.0000000000000000 Te
   0.5000000000000000    0.0000000000000001    1.0000000000000000 Te
   0.5000000000000001    0.5000000000000001    1.0000000000000000 Te
   0.3915961300000002    0.3915961300000000    0.7831922600000000 Te
   0.3915961300000001    0.8915961300000002    0.7831922600000000 Te
   0.8915961300000002    0.3915961300000000    0.7831922600000000 Te
   0.8915961300000002    0.8915961300000002    0.7831922600000000 Te
