Sb15 Te24
1.0
   8.6185831999999998    0.1168387600000000   19.9801515800000011
   4.2197271199999999    7.5158187400000003   19.9801515800000011
   0.1965269800000000    0.1168387800000000   21.7588577000000001
Sb Te
15 24
direct
   0.3021013850000001    0.3021013850000001    0.8021013850000001 Sb
   0.3021013850000001    0.8021013850000001    0.3021013850000001 Sb
   0.3021013849999999    0.8021013850000002    0.8021013850000004 Sb
   0.8021013850000001    0.3021013850000001    0.3021013850000001 Sb
   0.8021013850000001    0.3021013850000001    0.8021013850000002 Sb
   0.8021013849999999    0.8021013850000001    0.3021013849999998 Sb
   0.8021013850000001    0.8021013850000002    0.8021013849999998 Sb
   0.1978986149999999    0.1978986150000000    0.1978986150000001 Sb
   0.1978986150000000    0.1978986150000001    0.6978986150000002 Sb
   0.1978986149999999    0.6978986149999999    0.1978986150000001 Sb
   0.1978986149999999    0.6978986150000002    0.6978986150000002 Sb
   0.6978986150000002    0.1978986150000000    0.1978986150000000 Sb
   0.6978986149999999    0.1978986150000000    0.6978986150000002 Sb
   0.6978986149999998    0.6978986150000001    0.1978986150000003 Sb
   0.6978986149999999    0.6978986150000002    0.6978986150000001 Sb
   0.3912731050000000    0.3912731050000001    0.3912731050000000 Te
   0.3912731049999999    0.3912731050000001    0.8912731050000003 Te
   0.3912731049999999    0.8912731050000000    0.3912731050000000 Te
   0.3912731049999998    0.8912731050000001    0.8912731050000003 Te
   0.8912731050000001    0.3912731050000001    0.3912731049999998 Te
   0.8912731049999999    0.3912731050000001    0.8912731050000003 Te
   0.8912731049999999    0.8912731050000000    0.3912731050000001 Te
   0.8912731049999998    0.8912731050000001    0.8912731050000002 Te
   0.1087268950000000    0.1087268950000000    0.1087268950000000 Te
   0.1087268950000000    0.1087268950000000    0.6087268950000001 Te
   0.1087268950000000    0.6087268950000001    0.1087268949999999 Te
   0.1087268950000000    0.6087268950000001    0.6087268950000002 Te
   0.6087268950000001    0.1087268950000000    0.1087268950000000 Te
   0.6087268950000001    0.1087268950000000    0.6087268950000002 Te
   0.6087268950000001    0.6087268950000001    0.1087268950000002 Te
   0.6087268950000000    0.6087268950000001    0.6087268950000001 Te
   0.0000000000000000    0.0000000000000000    0.0000000000000000 Te
   1.0000000000000000    1.0000000000000000    0.5000000000000001 Te
   1.0000000000000000    0.5000000000000000    0.0000000000000000 Te
   0.9999999999999999    0.5000000000000001    0.5000000000000001 Te
   0.5000000000000000    0.0000000000000000    0.0000000000000000 Te
   0.5000000000000001    0.0000000000000000    0.5000000000000001 Te
   0.5000000000000001    0.5000000000000000    0.0000000000000000 Te
   0.5000000000000000    0.5000000000000001    0.5000000000000001 Te
