Si7 O16
1.0
   0.0000000000000000    7.3987326800000002    7.3987326800000002
   7.3987326800000002    0.0000000000000000    7.3987326800000002
   3.6993663400000001    3.6993663400000001    0.0000000000000000
Si O
7 16
direct
   0.3749999999999999    0.8750000000000002    0.7499999999999999 Si
   0.8750000000000001    0.3750000000000000    0.7499999999999999 Si
   0.8750000000000000    0.8750000000000001    0.7500000000000004 Si
   0.2500000000000000    0.2500000000000000    0.5000000000000000 Si
   0.2500000000000000    0.7500000000000000    0.4999999999999999 Si
   0.7500000000000000    0.2500000000000000    0.4999999999999999 Si
   0.7500000000000000    0.7500000000000000    0.5000000000000000 Si
   0.3125000000000000    0.3125000000000001    0.1250000000000001 O
   0.3125000000000001    0.8125000000000001    0.1250000000000000 O
   0.8125000000000001    0.3125000000000001    0.1250000000000000 O
   0.8125000000000001    0.8125000000000000    0.1250000000000001 O
   0.3125000000000001    0.0625000000000000    0.6250000000000000 O
   0.3125000000000001    0.5625000000000000    0.6249999999999999 O
   0.8125000000000002    0.0625000000000000    0.6250000000000001 O
   0.8125000000000001    0.5624999999999999    0.6250000000000000 O
   0.3125000000000000    0.3125000000000001    0.6250000000000001 O
   0.3125000000000001    0.8125000000000001    0.6250000000000000 O
   0.8125000000000001    0.3125000000000001    0.6250000000000000 O
   0.8125000000000000    0.8125000000000001    0.6250000000000003 O
   0.0624999999999999    0.3125000000000001    0.6250000000000000 O
   0.0624999999999999    0.8125000000000001    0.6250000000000002 O
   0.5625000000000000    0.3125000000000001    0.6250000000000002 O
   0.5624999999999999    0.8125000000000001    0.6250000000000004 O
