Li3 Fe4 P4 O16
1.0
  10.2361960500000002    0.0000000000000000    0.0000000000000000
   0.0000000000000000    5.9707550999999999   -0.0000009600000000
   0.0000000000000000   -0.0000009700000000    4.6549171899999999
Li Fe P O
3 4 4 16
direct
   0.5000000000000000    0.5000000000000000    0.5000000000000000 Li
   0.5000000000000000    0.0000000000000000    0.5000000000000000 Li
   0.0000000000000000    0.5000000000000000    0.0000000000000000 Li
   0.7811512700000001    0.2500000000000000    0.5298657300000001 Fe
   0.7188487300000000    0.7500000000000002    0.0298677300000000 Fe
   0.2811512700000000    0.2500000000000000    0.9701332700000000 Fe
   0.2188487300000000    0.7500000000000000    0.4701332700000000 Fe
   0.0938663000000000    0.2500000000000000    0.4186225700000000 P
   0.4061336999999999    0.7500000000000001    0.9186235700000001 P
   0.5938663000000000    0.2500000000000000    0.0813754300000000 P
   0.9061336999999990    0.7500000000000001    0.5813764300000001 P
   0.0942306700000000    0.2500000000000000    0.7447865600000000 O
   0.8341545199999999    0.5455580300000001    0.7137353400000001 O
   0.8341545199999999    0.9544429700000001    0.7137353400000002 O
   0.9057703300000001    0.7500000000000001    0.2552144400000000 O
   0.0443085600000000    0.7500000000000000    0.7098644500000001 O
   0.4057693300000000    0.7500000000000001    0.2447855600000000 O
   0.1658454800000000    0.0455580300000000    0.2862656600000000 O
   0.6658454800000000    0.4544419700000000    0.2137343400000000 O
   0.3341545200000000    0.5455580300000000    0.7862656600000000 O
   0.3341545200000000    0.9544429700000001    0.7862656600000000 O
   0.9556914400000002    0.2500000000000000    0.2901365500000000 O
   0.4556914400000001    0.2500000000000000    0.2098634500000000 O
   0.5443085600000001    0.7500000000000001    0.7901375500000000 O
   0.5942306700000000    0.2500000000000000    0.7552154400000001 O
   0.6658454800000000    0.0455580300000000    0.2137343400000000 O
   0.1658454800000000    0.4544419700000000    0.2862656600000000 O
