rho2youhua
1.0
        6.2119002342         0.0000000000         0.0000000000
        0.0000000000        12.7600002289         0.0000000000
        0.0000000000         0.0000000000        26.5317993164
   Rh    O    C
   32   57    1
Direct
     0.000610000         0.000000000         0.999279976
     0.000450000         0.250000000         0.120449997
     0.000650000         0.000000000         0.240439996
     0.000120000         0.250000000         0.361649990
     0.250459999         0.250000000         0.002490000
     0.250589997         0.000000000         0.120119996
     0.250609994         0.250000000         0.240820006
     0.250420004         0.000000000         0.358440012
     0.500609994         0.000000000         0.999279976
     0.500450015         0.250000000         0.120449997
     0.500649989         0.000000000         0.240439996
     0.500119984         0.250000000         0.361649990
     0.750460029         0.250000000         0.002490000
     0.750590026         0.000000000         0.120119996
     0.750609994         0.250000000         0.240820006
     0.750419974         0.000000000         0.358440012
     0.000590000         0.500000000         0.999289989
     0.000450000         0.750010014         0.120449997
     0.000640000         0.500000000         0.240429997
     0.000110000         0.750000000         0.361649990
     0.250459999         0.750000000         0.002490000
     0.250600010         0.500000000         0.120119996
     0.250600010         0.750000000         0.240820006
     0.250409991         0.500000000         0.358429998
     0.500590026         0.500000000         0.999289989
     0.500450015         0.750010014         0.120449997
     0.500639975         0.500000000         0.240429997
     0.500109971         0.750000000         0.361649990
     0.750460029         0.750000000         0.002490000
     0.750599980         0.500000000         0.120119996
     0.750599980         0.750000000         0.240820006
     0.750410020         0.500000000         0.358429998
     0.250559986         0.098719999         0.991050005
     0.250490010         0.346689999         0.119410001
     0.250660002         0.096689999         0.241319999
     0.250220001         0.348720014         0.369850010
     0.250569999         0.401279986         0.991060019
     0.250490010         0.153300002         0.119410001
     0.250649989         0.403320014         0.241310000
     0.250220001         0.151289999         0.369850010
     0.000440000         0.250000000         0.045699999
     0.000600000         0.000010000         0.166920006
     0.000510000         0.250010014         0.287889987
     0.000540000         0.999989986         0.073059998
     0.000570000         0.250010014         0.194000006
     0.000490000         0.000000000         0.315200001
     0.750559986         0.098719999         0.991050005
     0.750490010         0.346689999         0.119410001
     0.750660002         0.096680000         0.241319999
     0.750220001         0.348720014         0.369850010
     0.750569999         0.401279986         0.991060019
     0.750490010         0.153300002         0.119410001
     0.750649989         0.403320014         0.241310000
     0.750220001         0.151289999         0.369850010
     0.500440001         0.250000000         0.045699999
     0.500599980         0.000010000         0.166920006
     0.500509977         0.250010014         0.287889987
     0.500540018         0.999989986         0.073059998
     0.500569999         0.250010014         0.194000006
     0.500490010         0.000000000         0.315200001
     0.250569999         0.598720014         0.991060019
     0.250479996         0.846689999         0.119410001
     0.250640005         0.596679986         0.241319999
     0.250209987         0.848720014         0.369859993
     0.250559986         0.901279986         0.991050005
     0.250490010         0.653310001         0.119410001
     0.250640005         0.903320014         0.241319999
     0.250209987         0.651279986         0.369859993
     0.000440000         0.750000000         0.045699999
     0.000600000         0.500000000         0.166920006
     0.000500000         0.749989986         0.287889987
     0.000540000         0.500010014         0.073069997
     0.000560000         0.749989986         0.194000006
     0.000480000         0.500000000         0.315200001
     0.750559986         0.598720014         0.991060019
     0.750479996         0.846689999         0.119410001
     0.750639975         0.596679986         0.241319999
     0.750209987         0.848720014         0.369859993
     0.750559986         0.901279986         0.991050005
     0.750479996         0.653310001         0.119410001
     0.750639975         0.903320014         0.241319999
     0.750209987         0.651279986         0.369859993
     0.500440001         0.750000000         0.045699999
     0.500599980         0.500000000         0.166920006
     0.500500023         0.749989986         0.287889987
     0.500540018         0.500000000         0.073069997
     0.500559986         0.749989986         0.194000006
     0.500479996         0.500000000         0.315200001
     0.499520004         0.753979981         0.471410006
     0.511370003         0.754989982         0.426880002
