rho2face
1.0
        6.2119002342         0.0000000000         0.0000000000
        0.0000000000        12.7600002289         0.0000000000
        0.0000000000         0.0000000000        26.5317993164
   Rh    O
   32   56
Direct
     0.000590000         0.000000000         0.000000000
     0.000590000         0.250000000         0.120269999
     0.000590000         0.000000000         0.240549996
     0.000590000         0.250000000         0.360819995
     0.250409991         0.250000000         0.000000000
     0.250409991         0.000000000         0.120279998
     0.250400007         0.250000000         0.240549996
     0.250400007         0.000000000         0.360830009
     0.500590026         0.000000000         0.000000000
     0.500590026         0.250000000         0.120269999
     0.500590026         0.000000000         0.240549996
     0.500590026         0.250000000         0.360819995
     0.750410020         0.250000000         0.000000000
     0.750410020         0.000000000         0.120279998
     0.750400007         0.250000000         0.240549996
     0.750400007         0.000000000         0.360830009
     0.000590000         0.500000000         0.000000000
     0.000590000         0.750000000         0.120269999
     0.000590000         0.500000000         0.240549996
     0.000590000         0.750000000         0.360819995
     0.250409991         0.750000000         0.000000000
     0.250409991         0.500000000         0.120279998
     0.250400007         0.750000000         0.240549996
     0.250400007         0.500000000         0.360830009
     0.500590026         0.500000000         0.000000000
     0.500590026         0.750000000         0.120269999
     0.500590026         0.500000000         0.240549996
     0.500590026         0.750000000         0.360819995
     0.750410020         0.750000000         0.000000000
     0.750410020         0.500000000         0.120279998
     0.750400007         0.750000000         0.240549996
     0.750400007         0.500000000         0.360830009
     0.250459999         0.096469998         0.000070000
     0.250449985         0.346469998         0.120350003
     0.250449985         0.096469998         0.240620002
     0.250449985         0.346469998         0.360900015
     0.250459999         0.403530002         0.000070000
     0.250449985         0.153530002         0.120350003
     0.250449985         0.403530002         0.240620002
     0.250449985         0.153530002         0.360900015
     0.000540000         0.250000000         0.046480000
     0.000540000         0.000000000         0.166759998
     0.000540000         0.250000000         0.287030011
     0.000540000         0.000000000         0.073820002
     0.000540000         0.250000000         0.194089994
     0.000540000         0.000000000         0.314370006
     0.750460029         0.096469998         0.000070000
     0.750450015         0.346469998         0.120350003
     0.750450015         0.096469998         0.240620002
     0.750450015         0.346469998         0.360900015
     0.750460029         0.403530002         0.000070000
     0.750450015         0.153530002         0.120350003
     0.750450015         0.403530002         0.240620002
     0.750450015         0.153530002         0.360900015
     0.500540018         0.250000000         0.046480000
     0.500540018         0.000000000         0.166759998
     0.500540018         0.250000000         0.287030011
     0.500540018         0.000000000         0.073820002
     0.500540018         0.250000000         0.194089994
     0.500540018         0.000000000         0.314370006
     0.250459999         0.596469998         0.000070000
     0.250449985         0.846469998         0.120350003
     0.250449985         0.596469998         0.240620002
     0.250449985         0.846469998         0.360900015
     0.250459999         0.903530002         0.000070000
     0.250449985         0.653530002         0.120350003
     0.250449985         0.903530002         0.240620002
     0.250449985         0.653530002         0.360900015
     0.000540000         0.750000000         0.046480000
     0.000540000         0.500000000         0.166759998
     0.000540000         0.750000000         0.287030011
     0.000540000         0.500000000         0.073820002
     0.000540000         0.750000000         0.194089994
     0.000540000         0.500000000         0.314370006
     0.750460029         0.596469998         0.000070000
     0.750450015         0.846469998         0.120350003
     0.750450015         0.596469998         0.240620002
     0.750450015         0.846469998         0.360900015
     0.750460029         0.903530002         0.000070000
     0.750450015         0.653530002         0.120350003
     0.750450015         0.903530002         0.240620002
     0.750450015         0.653530002         0.360900015
     0.500540018         0.750000000         0.046480000
     0.500540018         0.500000000         0.166759998
     0.500540018         0.750000000         0.287030011
     0.500540018         0.500000000         0.073820002
     0.500540018         0.750000000         0.194089994
     0.500540018         0.500000000         0.314370006
