c-o
1.0
        8.2068996429         0.0000000000         0.0000000000
       -4.1034498215         7.1073835771         0.0000000000
        0.0000000000         0.0000000000        21.7008991241
    C    O
    1    1
Direct
     0.326469988         0.361369997         0.383329988
     0.326380014         0.368820012         0.442360014
