Li5 Mn12 O24
1.0
  -5.6990307399999995    0.0238847900000000   -0.1549862000000000
  -0.0335224000000000   -8.0675937199999996   -0.0105199900000000
   2.6331098700000002    4.0112265799999998    8.6342745399999998
Li Mn O
5 12 24
direct
   0.5833552600000000    0.7091148700000001    0.1667646900000000 Li
   0.0832382200000000    0.9580229500000000    0.1668402400000000 Li
   0.7505615400000002    0.6254877800000000    0.4998961100000001 Li
   0.4171576599999999    0.2906030800000001    0.8335700100000001 Li
   0.2500395800000000    0.3744534200000000    0.5001829300000001 Li
   0.8335821400000000    0.3330664100000000    0.1668033400000000 Mn
   0.5007040300000000    0.9997233000000000    0.0002042100000000 Mn
   0.6680999300000000    0.6661517200000000    0.8335838300000001 Mn
   0.1670753100000000    0.6662281700000000    0.3334961300000000 Mn
   0.1679770500000000    0.6662446600000002    0.8335875100000001 Mn
   0.0007760200000000    0.4996800200000001    0.0002225100000000 Mn
   0.0003918500000000    0.9995891299999999    0.5001345300000001 Mn
   0.3335967999999990    0.3329979900000000    0.1668310300000000 Mn
   0.8341710400000000    0.3328297800000001    0.6668544500000001 Mn
   0.5002966500000001    0.9996003000000001    0.5001249200000001 Mn
   0.3343018300000000    0.8327215200000001    0.6669814700000001 Mn
   0.6669876300000001    0.1665535000000000    0.3334970500000001 Mn
   0.8254222600000001    0.0871199400000001    0.6501810700000001 O
   0.1425865300000000    0.4287755100000001    0.8335707700000001 O
   0.5086541500000000    0.2453495700000000    0.0168717900000000 O
   0.4929190600000001    0.7539561200000001    0.9834755900000003 O
   0.9754225000000002    0.2369276200000001    0.5000903100000001 O
   0.3587221400000001    0.0955160200000000    0.1667580900000000 O
   0.4754890400000000    0.7621801399999999    0.5001384600000002 O
   0.0087175400000000    0.2705603300000000    0.0168270900000000 O
   0.3089420500000000    0.5704526900000000    0.1669536600000000 O
   0.6754116999999999    0.9374106900000001    0.3502477800000001 O
   0.1585297900000000    0.4204815999999990    0.3167916000000001 O
   0.3254038500000000    0.0618090800000001    0.6501067500000002 O
   0.6586205700000000    0.3955498400000000    0.3168538200000001 O
   0.6426456300000001    0.9036847000000001    0.8336313000000001 O
   0.9929807800000000    0.7287134900000001    0.9836256600000002 O
   0.3429945300000000    0.6037250100000000    0.6835996400000002 O
   0.0258461300000000    0.7622178500000000    0.5003083500000001 O
   0.1753474300000000    0.9119751800000000    0.3501049200000000 O
   0.6925599700000000    0.4287926100000001    0.8335411800000001 O
   0.1925174300000000    0.9036031700000000    0.8335532700000001 O
   0.8586938400000000    0.5704759500000002    0.1667747700000000 O
   0.8087652000000000    0.0957502500000000    0.1669382600000000 O
   0.8429955700000000    0.5786893600000002    0.6835517900000001 O
   0.5255640500000002    0.2371174999999991    0.5002658900000000 O
