Fe7 S16
1.0
  10.7936475999999999    0.0000000000000000    0.0000000000000000
   0.0000000000000000    5.3968237999999999    0.0000000000000000
   0.0000000000000000    0.0000000000000000    5.3968237999999999
Fe S
7 16
direct
   0.5000000000000000    0.5000000000000000    0.5000000000000000 Fe
   0.2500000000000000    0.5000000000000000    0.0000000000000000 Fe
   0.7500000000000000    0.5000000000000000    0.0000000000000000 Fe
   0.2500000000000000    0.0000000000000000    0.5000000000000000 Fe
   0.7500000000000000    0.0000000000000000    0.5000000000000000 Fe
   0.0000000000000000    0.0000000000000000    0.0000000000000000 Fe
   0.5000000000000000    0.0000000000000000    0.0000000000000000 Fe
   0.1926900700000000    0.1146198600000000    0.8853801400000000 S
   0.6926900699999999    0.1146198600000000    0.8853801400000000 S
   0.0573099300000000    0.8853801400000000    0.3853801400000000 S
   0.5573099300000001    0.8853801400000000    0.3853801400000000 S
   0.4426900700000000    0.3853801400000000    0.1146198600000000 S
   0.9426900699999999    0.3853801400000000    0.1146198600000000 S
   0.3073099300000000    0.6146198600000000    0.6146198600000000 S
   0.8073099300000001    0.6146198600000000    0.6146198600000000 S
   0.1926900700000000    0.3853801400000000    0.3853801400000000 S
   0.6926900699999999    0.3853801400000000    0.3853801400000000 S
   0.0573099300000000    0.6146198600000000    0.8853801400000000 S
   0.5573099300000001    0.6146198600000000    0.8853801400000000 S
   0.4426900700000000    0.1146198600000000    0.6146198600000000 S
   0.9426900699999999    0.1146198600000000    0.6146198600000000 S
   0.3073099300000000    0.8853801400000000    0.1146198600000000 S
   0.8073099300000001    0.8853801400000000    0.1146198600000000 S
