Sr7 Ru4 O16
1.0
   7.4903459000000003    0.0000000400000000   -2.1835729000000001
  -0.6365479600000000    7.4632399999999999   -2.1835687400000001
  -0.0160370800000000   -0.0174607200000000    6.9144475200000004
Sr Ru O
7 4 16
direct
   0.1771804650000000    0.6771804650000000    0.7087218500000001 Sr
   0.6771804650000002    0.1771804650000000    0.7087218500000001 Sr
   0.6771804650000002    0.6771804650000000    0.7087218500000001 Sr
   0.3228195350000000    0.3228195349999999    0.2912781500000000 Sr
   0.3228195350000000    0.8228195349999999    0.2912781500000000 Sr
   0.8228195350000003    0.3228195349999999    0.2912781500000001 Sr
   0.8228195350000000    0.8228195349999999    0.2912781500000000 Sr
   0.0000000000000000    0.0000000000000000    0.0000000000000000 Ru
   1.0000000000000000    0.5000000000000000    0.0000000000000000 Ru
   0.5000000000000001    0.0000000000000000    0.0000000000000000 Ru
   0.5000000000000001    0.5000000000000000    0.0000000000000001 Ru
   0.4191826950000000    0.4191826950000000    0.6767297800000001 O
   0.4191826950000000    0.9191826950000000    0.6767297800000002 O
   0.9191826950000002    0.4191826950000000    0.6767297800000001 O
   0.9191826950000000    0.9191826949999999    0.6767297800000002 O
   0.0808173050000000    0.0808173050000000    0.3232702200000000 O
   0.0808173050000000    0.5808173050000001    0.3232702200000000 O
   0.5808173050000002    0.0808173050000000    0.3232702200000000 O
   0.5808173050000001    0.5808173050000001    0.3232702200000001 O
   1.0000000000000000    0.2500000000000000    0.0000000000000000 O
   1.0000000000000000    0.7500000000000000    0.0000000000000000 O
   0.5000000000000001    0.2500000000000000    0.0000000000000000 O
   0.5000000000000001    0.7500000000000000    0.0000000000000001 O
   0.2500000000000001    0.0000000000000000    0.0000000000000000 O
   0.2500000000000001    0.5000000000000000    0.0000000000000000 O
   0.7500000000000001    0.0000000000000000    1.0000000000000000 O
   0.7500000000000001    0.5000000000000000    0.0000000000000001 O
