Fe15 Se16
1.0
   7.8665815800000001   -0.0000100800000000    0.0000089600000000
  -0.0000079000000000    7.8665789999999998    0.0000002200000000
  -0.0000033400000000    0.0000091000000000   11.7131826599999993
Fe Se
15 16
direct
   0.1250000000000000    0.3749999999999999    0.4999999999999999 Fe
   0.1250000000000000    0.8750000000000000    0.0000000000000000 Fe
   0.1250000000000000    0.8750000000000000    0.5000000000000000 Fe
   0.6249999999999999    0.3749999999999999    1.0000000000000000 Fe
   0.6249999999999999    0.3749999999999999    0.5000000000000000 Fe
   0.6249999999999999    0.8749999999999999    1.0000000000000000 Fe
   0.6249999999999999    0.8750000000000000    0.4999999999999999 Fe
   0.3749999999999999    0.1250000000000000    0.0000000000000000 Fe
   0.3749999999999999    0.1250000000000000    0.4999999999999999 Fe
   0.3750000000000000    0.6250000000000000    1.0000000000000000 Fe
   0.3749999999999999    0.6250000000000000    0.4999999999999999 Fe
   0.8749999999999999    0.1250000000000000    0.0000000000000000 Fe
   0.8749999999999999    0.1250000000000000    0.4999999999999999 Fe
   0.8750000000000000    0.6250000000000000    0.0000000000000000 Fe
   0.8749999999999999    0.6249999999999999    0.4999999999999999 Fe
   0.1249995000000000    0.1250000000000000    0.1288227700000000 Se
   0.1249995000000000    0.1250000000000000    0.6288227700000000 Se
   0.1249995000000000    0.6250000000000000    0.1288227700000000 Se
   0.1249995000000000    0.6250000000000000    0.6288227700000000 Se
   0.6249994999999999    0.1250000000000000    0.1288227700000000 Se
   0.6249994999999999    0.1250000000000000    0.6288227700000000 Se
   0.6249995000000000    0.6250000000000000    0.1288227700000000 Se
   0.6249995000000000    0.6250000000000000    0.6288227700000000 Se
   0.3750004999999995    0.3750000000000000    0.3711772300000000 Se
   0.3750004999999995    0.3750000000000000    0.8711772300000000 Se
   0.3750004999999995    0.8750000000000000    0.3711772300000000 Se
   0.3750004999999995    0.8750000000000000    0.8711772300000000 Se
   0.8750004999999994    0.3750000000000000    0.3711772300000000 Se
   0.8750004999999994    0.3750000000000000    0.8711772299999999 Se
   0.8750004999999994    0.8750000000000000    0.3711772300000000 Se
   0.8750004999999994    0.8749999999999999    0.8711772299999999 Se
