Li27 La12 Zr8 O48
1.0
  -6.6180349999999999    6.6180349999999999    6.3508529999999999
   6.6180349999999999   -6.6180349999999999    6.3508529999999999
   6.6180349999999999    6.6180349999999999   -6.3508529999999999
Li La Zr O
27 12 8 48
direct
   0.0000000000000000    0.0000000000000000    0.0000000000000000 Li
   0.2499999999999998    0.7499999999999999    0.4999999999999999 Li
   0.7500000000000000    0.2500000000000000    0.5000000000000000 Li
   0.9312109999999997    0.9312109999999999    0.3624219999999991 Li
   0.0687889999999999    0.4312109999999990    0.0000000000000000 Li
   0.6812109999999999    0.1812109999999991    0.8624219999999989 Li
   0.8187889999999997    0.6812110000000000    0.4999999999999999 Li
   0.3187889999999998    0.8187890000000000    0.1375780000000000 Li
   0.1812109999999989    0.3187890000000000    0.5000000000000000 Li
   0.5687889999999998    0.5687889999999999    0.6375779999999999 Li
   0.4312109999999990    0.0687890000000000    0.0000000000000000 Li
   0.9066779999999998    0.1496590000000000    0.9180499999999999 Li
   0.7316089999999998    0.6496589999999999    0.2429819999999990 Li
   0.8996590000000000    0.1566779999999990    0.4180500000000000 Li
   0.2386279999999989    0.6566780000000000    0.2570179999999990 Li
   0.3433219999999989    0.6003409999999999    0.5819500000000000 Li
   0.5183909999999989    0.1003410000000000    0.2570179999999990 Li
   0.3503409999999988    0.5933220000000000    0.0819500000000000 Li
   0.0113720000000000    0.0933220000000000    0.2429819999999990 Li
   0.4066779999999999    0.4886279999999991    0.7570180000000000 Li
   0.2316089999999988    0.9886279999999998    0.0819500000000000 Li
   0.3996589999999997    0.9816089999999998    0.7429819999999990 Li
   0.7386279999999997    0.4816089999999990    0.5819500000000001 Li
   0.8433220000000000    0.2613720000000000    0.7429819999999990 Li
   0.0183909999999988    0.7613719999999989    0.4180499999999999 Li
   0.8503409999999998    0.7683909999999990    0.7570179999999999 Li
   0.5113719999999989    0.2683910000000000    0.9180499999999999 Li
   0.7499999999999999    0.7499999999999999    0.0000000000000000 La
   0.2499999999999999    0.2500000000000000    0.0000000000000000 La
   0.4999999999999999    0.0000000000000000    0.4999999999999999 La
   0.9999999999999999    0.4999999999999999    0.4999999999999999 La
   0.3749999999999998    0.7523700000000001    0.8773700000000001 La
   0.3749999999999999    0.2523700000000000    0.3773700000000000 La
   0.5023700000000000    0.6250000000000000    0.3773700000000000 La
   0.7476300000000000    0.1250000000000001    0.1226300000000000 La
   0.8749999999999997    0.9976300000000001    0.6226300000000000 La
   0.8749999999999999    0.4976300000000001    0.1226300000000000 La
   0.0023699999999998    0.6250000000000000    0.8773700000000001 La
   0.2476299999999999    0.1250000000000000    0.6226300000000000 La
   0.6249999999999998    0.8749999999999999    0.7500000000000000 Zr
   0.6249999999999999    0.3750000000000000    0.2500000000000000 Zr
   0.6249999999999998    0.8749999999999999    0.2500000000000000 Zr
   0.1249999999999999    0.3749999999999999    0.2500000000000000 Zr
   0.1249999999999999    0.3749999999999999    0.7499999999999999 Zr
   0.1249999999999997    0.8749999999999999    0.2499999999999999 Zr
   0.1249999999999998    0.8750000000000000    0.7500000000000000 Zr
   0.6249999999999999    0.3749999999999999    0.7499999999999999 Zr
   0.5267789999999998    0.6866800000000000    0.7708669999999999 O
   0.4158129999999999    0.1866800000000000    0.1599010000000000 O
   0.4366799999999998    0.7767790000000000    0.2708669999999990 O
   0.0059119999999999    0.2767789999999999    0.3400989999999999 O
   0.7232210000000000    0.0633200000000000    0.7291329999999989 O
   0.8341869999999998    0.5633200000000000    0.3400990000000000 O
   0.8133199999999998    0.9732210000000000    0.2291330000000001 O
   0.2440879999999999    0.4732210000000001    0.1599010000000000 O
   0.0267789999999989    0.2559119999999999    0.8400989999999990 O
   0.9158129999999999    0.7559119999999990    0.2291330000000000 O
   0.9366800000000000    0.6658130000000001    0.6599010000000000 O
   0.5059119999999999    0.1658130000000000    0.7291329999999990 O
   0.2232209999999998    0.4940879999999990    0.6599010000000000 O
   0.3341869999999997    0.9940879999999999    0.2708669999999991 O
   0.3133199999999999    0.0841870000000000    0.8400989999999990 O
   0.7440879999999999    0.5841870000000000    0.7708670000000000 O
   0.9431100000000000    0.3956300000000000    0.6574059999999990 O
   0.2382239999999997    0.8956299999999999    0.4525199999999999 O
   0.1456300000000000    0.1931100000000000    0.1574060000000000 O
   0.5357039999999997    0.6931099999999999    0.0474800000000000 O
   0.3068900000000000    0.3543700000000001    0.8425939999999998 O
   0.0117759999999998    0.8543700000000000    0.0474800000000001 O
   0.1043699999999999    0.5568900000000000    0.3425940000000000 O
   0.7142959999999990    0.0568900000000001    0.4525200000000000 O
   0.4431099999999999    0.7857039999999998    0.5474800000000001 O
   0.7382240000000000    0.2857040000000001    0.3425940000000000 O
   0.6456299999999998    0.4882239999999999    0.9525199999999999 O
   0.0357039999999998    0.9882240000000000    0.8425940000000000 O
   0.8068899999999999    0.9642959999999992    0.9525200000000000 O
   0.5117759999999999    0.4642960000000000    0.1574060000000000 O
   0.6043700000000000    0.2617760000000000    0.5474800000000001 O
   0.2142959999999998    0.7617759999999999    0.6574059999999990 O
   0.2055369999999998    0.5795870000000001    0.9275960000000000 O
   0.1519909999999999    0.0795869999999990    0.3740499999999999 O
   0.3295869999999989    0.4555369999999990    0.4275960000000000 O
   0.5279409999999998    0.9555370000000000    0.1259500000000001 O
   0.0444629999999989    0.1704129999999990    0.5724040000000000 O
   0.0980089999999998    0.6704129999999989    0.1259500000000000 O
   0.9204129999999990    0.2944630000000000    0.0724040000000000 O
   0.7220589999999998    0.7944629999999990    0.3740500000000000 O
   0.7055369999999997    0.7779410000000000    0.6259500000000000 O
   0.6519910000000000    0.2779410000000000    0.0724040000000000 O
   0.8295869999999999    0.4019910000000001    0.8740500000000001 O
   0.0279409999999988    0.9019909999999999    0.5724039999999999 O
   0.5444629999999998    0.9720590000000001    0.8740500000000001 O
   0.5980089999999999    0.4720590000000000    0.4275959999999999 O
   0.4204129999999999    0.3480089999999990    0.6259500000000000 O
   0.2220589999999988    0.8480090000000000    0.9275960000000000 O
