Sn15 Se16
1.0
   9.4018148999999998    0.0000000000000000    0.0000000000000000
   0.0000000000000000    8.2525019000000004    0.0000000000000000
   0.0000000000000000    0.0000000000000000   11.6644585000000003
Sn Se
15 16
direct
   0.3117228500000000    0.6250000000000000    0.3812131500000001 Sn
   0.8117228500000000    0.1250000000000000    0.3812131500000001 Sn
   0.8117228500000000    0.6250000000000000    0.3812131500000001 Sn
   0.0617228499999995    0.3750000000000000    0.1187868500000000 Sn
   0.0617228499999995    0.8750000000000000    0.1187868500000000 Sn
   0.5617228499999996    0.3750000000000000    0.1187868500000000 Sn
   0.5617228499999996    0.8750000000000000    0.1187868500000000 Sn
   0.1882771500000000    0.3750000000000000    0.6187868500000000 Sn
   0.1882771500000000    0.8750000000000000    0.6187868500000000 Sn
   0.6882771500000000    0.3750000000000000    0.6187868500000000 Sn
   0.6882771500000000    0.8750000000000000    0.6187868500000000 Sn
   0.4382771500000000    0.1250000000000000    0.8812131500000000 Sn
   0.4382771500000000    0.6250000000000000    0.8812131500000000 Sn
   0.9382771500000000    0.1250000000000000    0.8812131500000000 Sn
   0.9382771500000000    0.6250000000000000    0.8812131500000000 Sn
   0.2454091000000000    0.3750000000000000    0.8514469700000000 Se
   0.2454091000000000    0.8750000000000000    0.8514469700000000 Se
   0.7454090999999999    0.3750000000000000    0.8514469700000000 Se
   0.7454090999999999    0.8750000000000000    0.8514469700000000 Se
   0.0045909000000000    0.3750000000000000    0.3514469700000000 Se
   0.0045909000000000    0.8750000000000000    0.3514469700000000 Se
   0.5045909000000001    0.3750000000000000    0.3514469700000000 Se
   0.5045909000000001    0.8750000000000000    0.3514469700000000 Se
   0.9954091000000000    0.1250000000000000    0.6485530300000000 Se
   0.9954091000000000    0.6250000000000000    0.6485530300000000 Se
   0.4954091000000000    0.1250000000000000    0.6485530300000000 Se
   0.4954091000000000    0.6250000000000000    0.6485530300000000 Se
   0.2545909000000000    0.1250000000000000    0.1485530300000000 Se
   0.2545909000000000    0.6250000000000000    0.1485530300000000 Se
   0.7545909000000001    0.1250000000000000    0.1485530300000000 Se
   0.7545909000000001    0.6250000000000000    0.1485530300000000 Se
