Ti7 C8
1.0
   5.3049041399999997    0.0000000000000000    3.0627883400000000
   1.7683027400000000    5.0015146200000000    3.0627883400000000
   0.0000000000000000    0.0000000000000000    6.1255787200000000
Ti C
7 8
direct
   0.0000000000000000    0.0000000000000000    0.5000000000000000 Ti
   0.0000000000000000    0.5000000000000000    1.0000000000000000 Ti
   0.0000000000000000    0.5000000000000000    0.5000000000000001 Ti
   0.5000000000000000    0.0000000000000000    0.0000000000000000 Ti
   0.5000000000000000    0.0000000000000000    0.5000000000000001 Ti
   0.5000000000000000    0.5000000000000000    1.0000000000000000 Ti
   0.5000000000000000    0.5000000000000000    0.4999999999999999 Ti
   0.2500000000000000    0.2500000000000000    0.2500000000000000 C
   0.2500000000000000    0.2500000000000000    0.7500000000000001 C
   0.2500000000000001    0.7500000000000000    0.2500000000000000 C
   0.2500000000000001    0.7500000000000000    0.7500000000000001 C
   0.7500000000000000    0.2500000000000000    0.2500000000000000 C
   0.7500000000000000    0.2500000000000000    0.7500000000000002 C
   0.7500000000000000    0.7500000000000000    0.2500000000000000 C
   0.7500000000000000    0.7500000000000000    0.7500000000000000 C
