SYSTEM = Structural
PREC = Accurate
ENCUT = 520
EDIFF = 1e-6
EDIFFG = -0.02
IBRION = 2
ISIF = 3
NSW = 60
POTIM = 0.5
ISMEAR = 0
SIGMA = 0.2
LORBIT = 0
ALGO = Normal
LREAL = Auto
LWAVE = .FALSE.
LCHARG = .FALSE.
