B12 P2
1.0
   4.9114863900000003    0.0015298000000000    1.8271892699999990
   1.2702941700000001    4.7443709900000002    1.8271892699999990
   0.0019921700000000    0.0015298000000000    5.2403543199999998
B P
12 2
direct
   0.1840465000000000    0.7173267000000000    0.1840465000000000 B
   0.1840465000000000    0.1840465000000000    0.7173267000000000 B
   0.7173267000000000    0.1840465000000000    0.1840465000000000 B
   0.2826732999999990    0.8159535000000000    0.8159535000000000 B
   0.8159535000000000    0.2826732999999990    0.8159535000000000 B
   0.8159535000000000    0.8159535000000000    0.2826732999999990 B
   0.0128176500000000    0.3265596500000000    0.0128176500000000 B
   0.0128176500000000    0.0128176500000000    0.3265596500000000 B
   0.3265596500000000    0.0128176500000000    0.0128176500000000 B
   0.6734403500000000    0.9871823500000000    0.9871823500000000 B
   0.9871823500000000    0.6734403500000000    0.9871823500000000 B
   0.9871823500000000    0.9871823500000000    0.6734403500000000 B
   0.4052543200000000    0.4052543200000000    0.4052543200000000 P
   0.5947456800000001    0.5947456800000001    0.5947456800000001 P
