pdo2youhua
1.0
        6.3611001968         0.0000000000         0.0000000000
        0.0000000000        12.8669996262         0.0000000000
        0.0000000000         0.0000000000        26.6438007355
   Pd    O    C
   32   57    1
Direct
     0.001480000         0.999989986         0.997749984
     0.000940000         0.249990001         0.120760001
     0.001210000         0.000000000         0.242210001
     0.001740000         0.250000000         0.364879996
     0.251210004         0.250000000         0.000710000
     0.251109987         0.999989986         0.121689998
     0.251430005         0.249990001         0.241190001
     0.251679987         0.000000000         0.362080008
     0.501479983         0.999989986         0.997749984
     0.500940025         0.249990001         0.120760001
     0.501209974         0.000000000         0.242210001
     0.501739979         0.250000000         0.364879996
     0.751209974         0.250000000         0.000710000
     0.751110017         0.999989986         0.121689998
     0.751429975         0.249990001         0.241190001
     0.751680017         0.000000000         0.362080008
     0.001480000         0.500000000         0.997759998
     0.000960000         0.750000000         0.120760001
     0.001220000         0.500000000         0.242219999
     0.001760000         0.750000000         0.364879996
     0.251219988         0.750000000         0.000720000
     0.251109987         0.500000000         0.121699996
     0.251439989         0.750020027         0.241180003
     0.251650006         0.500000000         0.362080008
     0.501479983         0.500000000         0.997759998
     0.500959992         0.750000000         0.120760001
     0.501219988         0.500000000         0.242219999
     0.501760006         0.750000000         0.364879996
     0.751219988         0.750000000         0.000720000
     0.751110017         0.500000000         0.121699996
     0.751439989         0.750020027         0.241180003
     0.751649976         0.500000000         0.362080008
     0.251410007         0.098430000         0.987190008
     0.250979990         0.346080005         0.115989998
     0.251260012         0.096100003         0.246730000
     0.251800001         0.348369986         0.375429988
     0.251410007         0.401569992         0.987200022
     0.250979990         0.153909996         0.115989998
     0.251269996         0.403890014         0.246739998
     0.251800001         0.151629999         0.375429988
     0.001130000         0.250030011         0.043620002
     0.001040000         0.999989986         0.168019995
     0.001450000         0.250000000         0.288819999
     0.001110000         0.000000000         0.073980004
     0.001330000         0.250010014         0.194879994
     0.001560000         0.000000000         0.319209993
     0.751410007         0.098430000         0.987190008
     0.750980020         0.346080005         0.115989998
     0.751259983         0.096100003         0.246730000
     0.751800001         0.348369986         0.375429988
     0.751410007         0.401569992         0.987200022
     0.750980020         0.153909996         0.115989998
     0.751269996         0.403890014         0.246739998
     0.751800001         0.151629999         0.375429988
     0.501129985         0.250030011         0.043620002
     0.501039982         0.999989986         0.168019995
     0.501450002         0.250000000         0.288819999
     0.501110017         0.000000000         0.073980004
     0.501330018         0.250010014         0.194879994
     0.501559973         0.000000000         0.319209993
     0.251410007         0.598429978         0.987200022
     0.250999987         0.846080005         0.115989998
     0.251280010         0.596120000         0.246739998
     0.251819998         0.848360002         0.375429988
     0.251410007         0.901560009         0.987200022
     0.250999987         0.653909981         0.115989998
     0.251260012         0.903890014         0.246739998
     0.251810014         0.651639998         0.375429988
     0.001150000         0.749989986         0.043639999
     0.001040000         0.500000000         0.168019995
     0.001480000         0.750000000         0.288810015
     0.001110000         0.500000000         0.073990002
     0.001340000         0.750000000         0.194879994
     0.001540000         0.500010014         0.319220006
     0.751410007         0.598429978         0.987200022
     0.750999987         0.846080005         0.115989998
     0.751280010         0.596120000         0.246739998
     0.751820028         0.848360002         0.375429988
     0.751410007         0.901560009         0.987200022
     0.750999987         0.653909981         0.115989998
     0.751259983         0.903890014         0.246739998
     0.751810014         0.651639998         0.375429988
     0.501150012         0.749989986         0.043639999
     0.501039982         0.500000000         0.168019995
     0.501479983         0.750000000         0.288810015
     0.501110017         0.500000000         0.073990002
     0.501339972         0.750000000         0.194879994
     0.501540005         0.500010014         0.319220006
     0.487809986         0.747709990         0.469430000
     0.499379992         0.748709977         0.425080001
