pdo2face
1.0
        6.3611001968         0.0000000000         0.0000000000
        0.0000000000        12.8669996262         0.0000000000
        0.0000000000         0.0000000000        26.6438007355
   Pd    O
   32   56
Direct
     0.001550000         0.000000000         0.000000000
     0.001540000         0.250000000         0.120820001
     0.001520000         0.000000000         0.241640002
     0.001500000         0.250000000         0.362450004
     0.251139998         0.250000000         0.000070000
     0.251120001         0.000000000         0.120889999
     0.251109987         0.250000000         0.241710007
     0.251089990         0.000000000         0.362520009
     0.501550019         0.000000000         0.000000000
     0.501540005         0.250000000         0.120820001
     0.501519978         0.000000000         0.241640002
     0.501500010         0.250000000         0.362450004
     0.751139998         0.250000000         0.000070000
     0.751119971         0.000000000         0.120889999
     0.751110017         0.250000000         0.241710007
     0.751089990         0.000000000         0.362520009
     0.001550000         0.500000000         0.000000000
     0.001540000         0.750000000         0.120820001
     0.001520000         0.500000000         0.241640002
     0.001500000         0.750000000         0.362450004
     0.251139998         0.750000000         0.000070000
     0.251120001         0.500000000         0.120889999
     0.251109987         0.750000000         0.241710007
     0.251089990         0.500000000         0.362520009
     0.501550019         0.500000000         0.000000000
     0.501540005         0.750000000         0.120820001
     0.501519978         0.500000000         0.241640002
     0.501500010         0.750000000         0.362450004
     0.751139998         0.750000000         0.000070000
     0.751119971         0.500000000         0.120889999
     0.751110017         0.750000000         0.241710007
     0.751089990         0.500000000         0.362520009
     0.251450002         0.095890000         0.000350000
     0.251430005         0.345889986         0.121169999
     0.251410007         0.095890000         0.241980001
     0.251399994         0.345889986         0.362800002
     0.251450002         0.404110014         0.000350000
     0.251430005         0.154110000         0.121169999
     0.251410007         0.404110014         0.241980001
     0.251399994         0.154110000         0.362800002
     0.001270000         0.250000000         0.046420000
     0.001250000         0.000000000         0.167239994
     0.001230000         0.250000000         0.288060009
     0.001260000         0.000000000         0.074560001
     0.001240000         0.250000000         0.195380002
     0.001220000         0.000000000         0.316199988
     0.751450002         0.095890000         0.000350000
     0.751429975         0.345889986         0.121169999
     0.751410007         0.095890000         0.241980001
     0.751399994         0.345889986         0.362800002
     0.751450002         0.404110014         0.000350000
     0.751429975         0.154110000         0.121169999
     0.751410007         0.404110014         0.241980001
     0.751399994         0.154110000         0.362800002
     0.501269996         0.250000000         0.046420000
     0.501250029         0.000000000         0.167239994
     0.501230001         0.250000000         0.288060009
     0.501259983         0.000000000         0.074560001
     0.501240015         0.250000000         0.195380002
     0.501219988         0.000000000         0.316199988
     0.251450002         0.595889986         0.000350000
     0.251430005         0.845889986         0.121169999
     0.251410007         0.595889986         0.241980001
     0.251399994         0.845889986         0.362800002
     0.251450002         0.904110014         0.000350000
     0.251430005         0.654110014         0.121169999
     0.251410007         0.904110014         0.241980001
     0.251399994         0.654110014         0.362800002
     0.001270000         0.750000000         0.046420000
     0.001250000         0.500000000         0.167239994
     0.001230000         0.750000000         0.288060009
     0.001260000         0.500000000         0.074560001
     0.001240000         0.750000000         0.195380002
     0.001220000         0.500000000         0.316199988
     0.751450002         0.595889986         0.000350000
     0.751429975         0.845889986         0.121169999
     0.751410007         0.595889986         0.241980001
     0.751399994         0.845889986         0.362800002
     0.751450002         0.904110014         0.000350000
     0.751429975         0.654110014         0.121169999
     0.751410007         0.904110014         0.241980001
     0.751399994         0.654110014         0.362800002
     0.501269996         0.750000000         0.046420000
     0.501250029         0.500000000         0.167239994
     0.501230001         0.750000000         0.288060009
     0.501259983         0.500000000         0.074560001
     0.501240015         0.750000000         0.195380002
     0.501219988         0.500000000         0.316199988
