pto2face
1.0
        6.3573999405         0.0000000000         0.0000000000
        0.0000892206        12.8852996823         0.0000000000
        0.0000000000         0.0000000000        27.5655002594
   Pt    O
   32   52
Direct
     0.000710000         0.009150000         0.000020000
     0.000700000         0.256839991         0.116880000
     0.000690000         0.004540000         0.233740002
     0.000680000         0.252229989         0.350589991
     0.250519991         0.259130001         0.000000000
     0.250510007         0.006820000         0.116860002
     0.250499994         0.254519999         0.233720005
     0.250490010         0.002210000         0.350569993
     0.500710011         0.009150000         0.000020000
     0.500699997         0.256839991         0.116880000
     0.500689983         0.004540000         0.233740002
     0.500680029         0.252229989         0.350589991
     0.750519991         0.259130001         0.000000000
     0.750509977         0.006820000         0.116860002
     0.750500023         0.254519999         0.233720005
     0.750490010         0.002210000         0.350569993
     0.000710000         0.509150028         0.000020000
     0.000700000         0.756839991         0.116880000
     0.000690000         0.504540026         0.233740002
     0.000680000         0.752229989         0.350589991
     0.250519991         0.759130001         0.000000000
     0.250510007         0.506820023         0.116860002
     0.250499994         0.754519999         0.233720005
     0.250490010         0.502210021         0.350569993
     0.500710011         0.509150028         0.000020000
     0.500699997         0.756839991         0.116880000
     0.500689983         0.504540026         0.233740002
     0.500680029         0.752229989         0.350589991
     0.750519991         0.759130001         0.000000000
     0.750509977         0.506820023         0.116860002
     0.750500023         0.754519999         0.233720005
     0.750490010         0.502210021         0.350569993
     0.250569999         0.351729989         0.105269998
     0.250559986         0.099420004         0.222130001
     0.250550002         0.347119987         0.338979989
     0.250589997         0.414220005         0.011630000
     0.250580013         0.161919996         0.128490001
     0.250569999         0.409610003         0.245350003
     0.250559986         0.157309994         0.362210006
     0.000580000         0.032550000         0.072559997
     0.000570000         0.280239999         0.189420000
     0.000560000         0.027939999         0.306279987
     0.000580000         0.233290002         0.044270001
     0.000570000         0.480989993         0.161129996
     0.000560000         0.228680000         0.277990013
     0.750569999         0.351729989         0.105269998
     0.750559986         0.099420004         0.222130001
     0.750549972         0.347119987         0.338979989
     0.750590026         0.414220005         0.011630000
     0.750580013         0.161919996         0.128490001
     0.750569999         0.409610003         0.245350003
     0.750559986         0.157309994         0.362210006
     0.500580013         0.032550000         0.072559997
     0.500569999         0.280239999         0.189420000
     0.500559986         0.027939999         0.306279987
     0.500580013         0.233290002         0.044270001
     0.500569999         0.480989993         0.161129996
     0.500559986         0.228680000         0.277990013
     0.250569999         0.851729989         0.105269998
     0.250559986         0.599420011         0.222130001
     0.250550002         0.847119987         0.338979989
     0.250589997         0.914219975         0.011630000
     0.250580013         0.661920011         0.128490001
     0.250569999         0.909609973         0.245350003
     0.250559986         0.657310009         0.362210006
     0.000580000         0.532549977         0.072559997
     0.000570000         0.780239999         0.189420000
     0.000560000         0.527939975         0.306279987
     0.000580000         0.733290017         0.044270001
     0.000570000         0.980989993         0.161129996
     0.000560000         0.728680015         0.277990013
     0.750569999         0.851729989         0.105269998
     0.750559986         0.599420011         0.222130001
     0.750549972         0.847119987         0.338979989
     0.750590026         0.914219975         0.011630000
     0.750580013         0.661920011         0.128490001
     0.750569999         0.909609973         0.245350003
     0.750559986         0.657310009         0.362210006
     0.500580013         0.532549977         0.072559997
     0.500569999         0.780239999         0.189420000
     0.500559986         0.527939975         0.306279987
     0.500580013         0.733290017         0.044270001
     0.500569999         0.980989993         0.161129996
     0.500559986         0.728680015         0.277990013
