pto2youhua
1.0
        6.3573999405         0.0000000000         0.0000000000
        0.0000892206        12.8852996823         0.0000000000
        0.0000000000         0.0000000000        27.5655002594
   Pt    O    C
   32   53    1
Direct
     0.967620015         0.019610001         0.998470008
     0.001120000         0.254390001         0.116200000
     0.000440000         0.009730000         0.238120005
     0.000640000         0.239700004         0.360000014
     0.250389993         0.164010003         0.014220000
     0.250140011         0.004030000         0.117559999
     0.249390006         0.260549992         0.233970001
     0.288089991         0.993149996         0.349489987
     0.532830000         0.019670000         0.998549998
     0.500129998         0.254590005         0.116300002
     0.500890017         0.012590000         0.233730003
     0.500609994         0.245969996         0.355399996
     0.750530005         0.182840005         0.014330000
     0.751420021         0.004000000         0.117509998
     0.751789987         0.260639995         0.234060004
     0.712790012         0.993089974         0.349449992
     0.033020001         0.520060003         0.997659981
     0.000280000         0.754580021         0.116169997
     0.000800000         0.512679994         0.233260006
     0.000370000         0.746029973         0.355780005
     0.250970006         0.683220029         0.013960000
     0.251450002         0.503849983         0.116750002
     0.251910001         0.760330021         0.234040007
     0.212850004         0.493349999         0.349269986
     0.467759997         0.520060003         0.997579992
     0.501230001         0.754519999         0.116039999
     0.500320017         0.509809971         0.237709999
     0.500519991         0.739669979         0.360529989
     0.750159979         0.664229989         0.013900000
     0.749970019         0.503910005         0.116860002
     0.749339998         0.760249972         0.233960003
     0.788100004         0.493339986         0.349280000
     0.251100004         0.349079996         0.104610004
     0.247779995         0.106119998         0.223680004
     0.243860006         0.343950003         0.362129986
     0.250580013         0.490740001         0.948069990
     0.250649989         0.159040004         0.128419995
     0.245859995         0.415840000         0.247370005
     0.260780007         0.147450000         0.368690014
     0.003830000         0.998009980         0.071429998
     0.000150000         0.281309992         0.188840002
     0.000700000         0.020220000         0.313300014
     0.007980000         0.248480007         0.041839998
     0.001930000         0.485740006         0.161589995
     0.000660000         0.241650000         0.279119998
     0.750240028         0.348639995         0.104180001
     0.753449976         0.106239997         0.223749995
     0.757409990         0.343959987         0.362109989
     0.750519991         0.481460005         0.970950007
     0.750689983         0.159040004         0.127880007
     0.755219996         0.415930003         0.247290000
     0.740320027         0.147400007         0.368629992
     0.497280002         0.996089995         0.070979998
     0.501070023         0.281390011         0.188720003
     0.500240028         0.053119998         0.302960008
     0.493129998         0.248109996         0.042050000
     0.499419987         0.488440007         0.162870005
     0.500450015         0.267760009         0.279339999
     0.250200003         0.848909974         0.104489997
     0.253609985         0.606140018         0.223220006
     0.257290006         0.843940020         0.362329990
     0.250409991         0.980920017         0.972050011
     0.250910014         0.658900023         0.127100006
     0.255160004         0.915620029         0.247610003
     0.240040004         0.647350013         0.369120002
     0.997179985         0.495669991         0.070139997
     0.001110000         0.780789971         0.188649997
     0.000260000         0.553070009         0.302619994
     0.993399978         0.748000026         0.041919999
     0.999469995         0.988189995         0.163470000
     0.000470000         0.766409993         0.279379994
     0.751359999         0.849389970         0.104939997
     0.747439981         0.606010020         0.223150000
     0.743629992         0.843930006         0.362309992
     0.750509977         0.989719987         0.949119985
     0.750699997         0.658969998         0.127700001
     0.746089995         0.915560007         0.247700006
     0.760789990         0.647360027         0.369159997
     0.503910005         0.496899992         0.070550002
     0.500190020         0.780680001         0.188769996
     0.500720024         0.520630002         0.312970012
     0.508140028         0.749000013         0.041689999
     0.501990020         0.984979987         0.162230000
     0.500680029         0.741169989         0.279100001
     0.488090008         0.746640027         0.453729987
     0.499669999         0.747650027         0.410869986
