Fe35
1.0
   7.0084352699999997    0.0003350100000000   -2.4774687900000001
  -3.5042339400000002    6.0691417199999993   -2.4782465999999999
   2.3401477399999999    4.0546100000000003    6.6206559199999999
Fe
35
direct
   0.1666666733333333    0.1666666933333333    0.7499999950000000 Fe
   0.1666666733333334    0.5000000266666667    0.2499999950000001 Fe
   0.1666666733333334    0.5000000266666668    0.7499999950000000 Fe
   0.1666666733333333    0.8333333599999999    0.2499999950000000 Fe
   0.1666666733333333    0.8333333600000000    0.7499999950000000 Fe
   0.5000000066666667    0.1666666933333333    0.2499999950000000 Fe
   0.5000000066666667    0.1666666933333334    0.7499999950000000 Fe
   0.5000000066666667    0.5000000266666668    0.2499999950000000 Fe
   0.5000000066666666    0.5000000266666667    0.7499999950000000 Fe
   0.5000000066666667    0.8333333600000000    0.2499999950000000 Fe
   0.5000000066666667    0.8333333600000000    0.7499999950000000 Fe
   0.8333333399999999    0.1666666933333333    0.2499999950000000 Fe
   0.8333333399999999    0.1666666933333333    0.7499999949999999 Fe
   0.8333333400000000    0.5000000266666667    0.2499999950000000 Fe
   0.8333333400000000    0.5000000266666668    0.7499999950000000 Fe
   0.8333333399999999    0.8333333600000001    0.2499999950000001 Fe
   0.8333333400000000    0.8333333600000001    0.7499999950000001 Fe
   0.3333333266666667    0.3333333066666667    0.0000000050000000 Fe
   0.3333333266666667    0.3333333066666667    0.5000000050000001 Fe
   0.3333333266666667    0.6666666400000000    0.0000000050000000 Fe
   0.3333333266666666    0.6666666400000000    0.5000000050000001 Fe
   0.3333333266666667    0.9999999733333333    0.0000000050000000 Fe
   0.3333333266666667    0.9999999733333335    0.5000000050000001 Fe
   0.6666666600000000    0.3333333066666667    0.0000000050000000 Fe
   0.6666666600000000    0.3333333066666667    0.5000000050000000 Fe
   0.6666666600000000    0.6666666400000001    0.0000000050000001 Fe
   0.6666666600000000    0.6666666400000000    0.5000000050000001 Fe
   0.6666666600000000    0.9999999733333335    0.0000000050000000 Fe
   0.6666666600000000    0.9999999733333333    0.5000000050000000 Fe
   0.9999999933333332    0.3333333066666667    0.0000000050000000 Fe
   0.9999999933333331    0.3333333066666667    0.5000000050000000 Fe
   0.9999999933333331    0.6666666400000000    0.0000000049999999 Fe
   0.9999999933333332    0.6666666400000001    0.5000000050000000 Fe
   0.9999999933333332    0.9999999733333333    0.0000000050000001 Fe
   0.9999999933333332    0.9999999733333335    0.5000000050000001 Fe
