Au26
1.0
   7.6631459999999993    0.0000000000000000    4.4243189999999997
   2.5543829999999970    7.2248849999999996    4.4243189999999997
   0.0000000000000000    0.0000000000000000    8.8486379999999993
Au
26
direct
   0.0000000000000000    0.0000000000000000    0.3333333333333333 Au
   0.0000000000000000    0.0000000000000000    0.6666666666666666 Au
   1.0000000000000000    0.3333333333333334    0.0000000000000000 Au
   1.0000000000000000    0.3333333333333334    0.3333333333333333 Au
   1.0000000000000000    0.3333333333333334    0.6666666666666666 Au
   1.0000000000000000    0.6666666666666667    0.0000000000000000 Au
   1.0000000000000000    0.6666666666666667    0.3333333333333334 Au
   1.0000000000000000    0.6666666666666667    0.6666666666666666 Au
   0.3333333333333333    0.0000000000000000    0.0000000000000000 Au
   0.3333333333333333    0.0000000000000000    0.3333333333333333 Au
   0.3333333333333333    0.0000000000000000    0.6666666666666666 Au
   0.3333333333333333    0.3333333333333334    0.0000000000000000 Au
   0.3333333333333333    0.3333333333333334    0.3333333333333334 Au
   0.3333333333333333    0.3333333333333334    0.6666666666666666 Au
   0.3333333333333334    0.6666666666666667    1.0000000000000000 Au
   0.3333333333333334    0.6666666666666667    0.3333333333333333 Au
   0.3333333333333334    0.6666666666666667    0.6666666666666665 Au
   0.6666666666666666    0.0000000000000000    0.0000000000000000 Au
   0.6666666666666666    0.0000000000000000    0.3333333333333334 Au
   0.6666666666666666    0.0000000000000000    0.6666666666666666 Au
   0.6666666666666665    0.3333333333333334    0.0000000000000000 Au
   0.6666666666666665    0.3333333333333334    0.3333333333333334 Au
   0.6666666666666665    0.3333333333333334    0.6666666666666666 Au
   0.6666666666666666    0.6666666666666667    0.0000000000000000 Au
   0.6666666666666666    0.6666666666666667    0.3333333333333334 Au
   0.6666666666666666    0.6666666666666667    0.6666666666666667 Au
