Na11 Cl12
1.0
  10.2660450000000001    0.0000000000000000    5.9271060000000002
   2.2813420000000000    6.4526120000000002    3.9514040000000001
   0.0000000000000000    0.0000000000000000    7.9028039999999997
Na Cl
11 12
direct
   0.0000000000000000    0.0000000000000000    0.5000000000000000 Na
   0.0000000000000000    0.4999999999999999    1.0000000000000000 Na
   0.0000000000000000    0.4999999999999999    0.5000000000000000 Na
   0.3333333333333334    0.0000000000000000    1.0000000000000000 Na
   0.3333333333333334    0.0000000000000000    0.5000000000000000 Na
   0.3333333333333334    0.4999999999999999    1.0000000000000000 Na
   0.3333333333333334    0.4999999999999999    0.5000000000000000 Na
   0.6666666666666667    0.0000000000000000    1.0000000000000000 Na
   0.6666666666666667    0.0000000000000000    0.5000000000000000 Na
   0.6666666666666667    0.4999999999999999    0.0000000000000000 Na
   0.6666666666666667    0.4999999999999999    0.5000000000000000 Na
   0.1666666666666667    0.2500000000000000    0.2500000000000000 Cl
   0.1666666666666667    0.2500000000000000    0.7500000000000000 Cl
   0.1666666666666667    0.7499999999999999    0.2500000000000001 Cl
   0.1666666666666667    0.7499999999999999    0.7500000000000000 Cl
   0.5000000000000000    0.2500000000000000    0.2500000000000000 Cl
   0.5000000000000000    0.2500000000000000    0.7499999999999999 Cl
   0.5000000000000001    0.7499999999999999    0.2500000000000001 Cl
   0.5000000000000001    0.7499999999999999    0.7500000000000001 Cl
   0.8333333333333333    0.2500000000000000    0.2500000000000001 Cl
   0.8333333333333333    0.2500000000000000    0.7500000000000001 Cl
   0.8333333333333335    0.7499999999999999    0.2500000000000001 Cl
   0.8333333333333335    0.7499999999999999    0.7499999999999999 Cl
