iro2youhua
1.0
        6.3737998009         0.0000000000         0.0000000000
        0.0000000000        12.8028001785         0.0000000000
        0.0000000000         0.0000000000        26.5781002045
   Ir    O    C
   32   57    1
Direct
     0.000170000         0.000000000         0.000240000
     0.000190000         0.250000000         0.119640000
     0.000240000         0.000000000         0.241640002
     0.000110000         0.250000000         0.361090004
     0.250110000         0.250000000         0.001120000
     0.250239998         0.000000000         0.121140003
     0.250200003         0.250000000         0.240109995
     0.250019997         0.000000000         0.360150009
     0.500169992         0.000000000         0.000240000
     0.500190020         0.250000000         0.119640000
     0.500230014         0.000000000         0.241640002
     0.500100017         0.250000000         0.361090004
     0.750109971         0.250000000         0.001120000
     0.750240028         0.000000000         0.121140003
     0.750199974         0.250000000         0.240109995
     0.750020027         0.000010000         0.360139996
     0.000170000         0.500000000         0.000240000
     0.000180000         0.750000000         0.119649999
     0.000230000         0.500000000         0.241640002
     0.000110000         0.750000000         0.361079991
     0.250110000         0.750000000         0.001120000
     0.250239998         0.500000000         0.121140003
     0.250200003         0.750000000         0.240109995
     0.250030011         0.500000000         0.360139996
     0.500169992         0.500000000         0.000240000
     0.500180006         0.750000000         0.119649999
     0.500230014         0.500000000         0.241640002
     0.500109971         0.750000000         0.361079991
     0.750109971         0.750000000         0.001120000
     0.750240028         0.500000000         0.121140003
     0.750199974         0.750000000         0.240109995
     0.750029981         0.500000000         0.360139996
     0.250149995         0.096589997         0.994419992
     0.250200003         0.345789999         0.119690001
     0.250209987         0.095810004         0.241520002
     0.250079989         0.346590012         0.366990000
     0.250160009         0.403420001         0.994430006
     0.250200003         0.154220000         0.119700000
     0.250220001         0.404190004         0.241510004
     0.250079989         0.153410003         0.367000014
     0.000120000         0.250000000         0.044769999
     0.000260000         0.000000000         0.167449996
     0.000170000         0.250010014         0.286150008
     0.000260000         0.999989986         0.075099997
     0.000210000         0.250010014         0.193839997
     0.000070000         0.000000000         0.316579998
     0.750159979         0.096589997         0.994419992
     0.750199974         0.345789999         0.119690001
     0.750220001         0.095810004         0.241520002
     0.750079989         0.346590012         0.366990000
     0.750159979         0.403420001         0.994430006
     0.750199974         0.154220000         0.119700000
     0.750220001         0.404190004         0.241510004
     0.750069976         0.153420001         0.366990000
     0.500119984         0.250000000         0.044769999
     0.500259995         0.000000000         0.167449996
     0.500169992         0.250010014         0.286150008
     0.500259995         0.000000000         0.075099997
     0.500209987         0.250010014         0.193839997
     0.500039995         0.000000000         0.316579998
     0.250160009         0.596580029         0.994430006
     0.250200003         0.845780015         0.119700000
     0.250220001         0.595809996         0.241520002
     0.250079989         0.846589983         0.366990000
     0.250160009         0.903410017         0.994419992
     0.250189990         0.654209971         0.119700000
     0.250209987         0.904190004         0.241520002
     0.250079989         0.653400004         0.366990000
     0.000120000         0.750000000         0.044769999
     0.000260000         0.500000000         0.167449996
     0.000170000         0.749989986         0.286150008
     0.000260000         0.500010014         0.075110003
     0.000210000         0.749989986         0.193849996
     0.000070000         0.500000000         0.316579998
     0.750159979         0.596580029         0.994430006
     0.750199974         0.845780015         0.119700000
     0.750220001         0.595809996         0.241520002
     0.750069976         0.846599996         0.366990000
     0.750159979         0.903410017         0.994419992
     0.750199974         0.654209971         0.119700000
     0.750220001         0.904190004         0.241520002
     0.750079989         0.653410017         0.366990000
     0.500119984         0.750000000         0.044769999
     0.500259995         0.500000000         0.167449996
     0.500169992         0.749989986         0.286150008
     0.500259995         0.500010014         0.075110003
     0.500209987         0.749989986         0.193849996
     0.500069976         0.500000000         0.316579998
     0.538250029         0.751200020         0.470580012
     0.536939979         0.752330005         0.424580008
