Iro2face
1.0
        6.3737998009         0.0000000000         0.0000000000
        0.0000000000        12.8028001785         0.0000000000
        0.0000000000         0.0000000000        26.5781002045
   Ir    O
   32   56
Direct
     0.000280000         0.000000000         0.000000000
     0.000280000         0.250000000         0.120430000
     0.000290000         0.000000000         0.240860000
     0.000290000         0.250000000         0.361290008
     0.250099987         0.250000000         0.000000000
     0.250099987         0.000000000         0.120430000
     0.250110000         0.250000000         0.240860000
     0.250110000         0.000000000         0.361290008
     0.500280023         0.000000000         0.000000000
     0.500280023         0.250000000         0.120430000
     0.500289977         0.000000000         0.240860000
     0.500289977         0.250000000         0.361290008
     0.750100017         0.250000000         0.000000000
     0.750100017         0.000000000         0.120430000
     0.750109971         0.250000000         0.240860000
     0.750109971         0.000000000         0.361290008
     0.000280000         0.500000000         0.000000000
     0.000280000         0.750000000         0.120430000
     0.000290000         0.500000000         0.240860000
     0.000290000         0.750000000         0.361290008
     0.250099987         0.750000000         0.000000000
     0.250099987         0.500000000         0.120430000
     0.250110000         0.750000000         0.240860000
     0.250110000         0.500000000         0.361290008
     0.500280023         0.500000000         0.000000000
     0.500280023         0.750000000         0.120430000
     0.500289977         0.500000000         0.240860000
     0.500289977         0.750000000         0.361290008
     0.750100017         0.750000000         0.000000000
     0.750100017         0.500000000         0.120430000
     0.750109971         0.750000000         0.240860000
     0.750109971         0.500000000         0.361290008
     0.250079989         0.095619999         0.000020000
     0.250079989         0.345620006         0.120449997
     0.250079989         0.095619999         0.240879998
     0.250090003         0.345620006         0.361310005
     0.250079989         0.404379994         0.000020000
     0.250079989         0.154379994         0.120449997
     0.250079989         0.404379994         0.240879998
     0.250090003         0.154379994         0.361310005
     0.000240000         0.250000000         0.046060000
     0.000240000         0.000000000         0.166490003
     0.000240000         0.250000000         0.286920011
     0.000230000         0.000000000         0.074340001
     0.000240000         0.250000000         0.194769993
     0.000240000         0.000000000         0.315200001
     0.750079989         0.095619999         0.000020000
     0.750079989         0.345620006         0.120449997
     0.750079989         0.095619999         0.240879998
     0.750090003         0.345620006         0.361310005
     0.750079989         0.404379994         0.000020000
     0.750079989         0.154379994         0.120449997
     0.750079989         0.404379994         0.240879998
     0.750090003         0.154379994         0.361310005
     0.500240028         0.250000000         0.046060000
     0.500240028         0.000000000         0.166490003
     0.500240028         0.250000000         0.286920011
     0.500230014         0.000000000         0.074340001
     0.500240028         0.250000000         0.194769993
     0.500240028         0.000000000         0.315200001
     0.250079989         0.595619977         0.000020000
     0.250079989         0.845619977         0.120449997
     0.250079989         0.595619977         0.240879998
     0.250090003         0.845619977         0.361310005
     0.250079989         0.904380023         0.000020000
     0.250079989         0.654380023         0.120449997
     0.250079989         0.904380023         0.240879998
     0.250090003         0.654380023         0.361310005
     0.000240000         0.750000000         0.046060000
     0.000240000         0.500000000         0.166490003
     0.000240000         0.750000000         0.286920011
     0.000230000         0.500000000         0.074340001
     0.000240000         0.750000000         0.194769993
     0.000240000         0.500000000         0.315200001
     0.750079989         0.595619977         0.000020000
     0.750079989         0.845619977         0.120449997
     0.750079989         0.595619977         0.240879998
     0.750090003         0.845619977         0.361310005
     0.750079989         0.904380023         0.000020000
     0.750079989         0.654380023         0.120449997
     0.750079989         0.904380023         0.240879998
     0.750090003         0.654380023         0.361310005
     0.500240028         0.750000000         0.046060000
     0.500240028         0.500000000         0.166490003
     0.500240028         0.750000000         0.286920011
     0.500230014         0.500000000         0.074340001
     0.500240028         0.750000000         0.194769993
     0.500240028         0.500000000         0.315200001
