Ba7 Fe8 O24
1.0
   7.9031402399999999    0.0000000000000000    0.0000000000000000
   0.0000000000000000    7.9031298999999997    0.0000000000000000
   0.0000000000000000    0.0000000000000000    7.9031298999999997
Ba Fe O
7 8 24
direct
   0.0000000000000000    0.0000000000000000    0.5000000000000000 Ba
   0.0000000000000000    0.5000000000000000    0.0000000000000000 Ba
   0.0000000000000000    0.5000000000000000    0.5000000000000000 Ba
   0.5000000000000000    0.0000000000000000    0.0000000000000000 Ba
   0.5000000000000000    0.0000000000000000    0.5000000000000000 Ba
   0.5000000000000000    0.5000000000000000    0.0000000000000000 Ba
   0.5000000000000000    0.5000000000000000    0.5000000000000000 Ba
   0.2500005000000000    0.2500005000000000    0.2500005000000000 Fe
   0.2500005000000000    0.2500005000000000    0.7500005000000001 Fe
   0.2500005000000000    0.7500005000000001    0.2500005000000000 Fe
   0.2500005000000000    0.7500005000000001    0.7500005000000001 Fe
   0.7500005000000001    0.2500005000000000    0.2500005000000000 Fe
   0.7500005000000001    0.2500005000000000    0.7500005000000001 Fe
   0.7500005000000001    0.7500005000000001    0.2500005000000000 Fe
   0.7500005000000001    0.7500005000000001    0.7500005000000001 Fe
   0.0000000000000000    0.2500005000000000    0.2500005000000000 O
   0.0000000000000000    0.2500005000000000    0.7500005000000001 O
   0.0000000000000000    0.7500005000000001    0.2500005000000000 O
   0.0000000000000000    0.7500005000000001    0.7500005000000001 O
   0.5000000000000000    0.2500005000000000    0.2500005000000000 O
   0.5000000000000000    0.2500005000000000    0.7500005000000001 O
   0.5000000000000000    0.7500005000000001    0.2500005000000000 O
   0.5000000000000000    0.7500005000000001    0.7500005000000001 O
   0.2500005000000000    0.0000000000000000    0.2500005000000000 O
   0.2500005000000000    0.0000000000000000    0.7500005000000001 O
   0.2500005000000000    0.5000000000000000    0.2500005000000000 O
   0.2500005000000000    0.5000000000000000    0.7500005000000001 O
   0.7500005000000001    0.0000000000000000    0.2500005000000000 O
   0.7500005000000001    0.0000000000000000    0.7500005000000001 O
   0.7500005000000001    0.5000000000000000    0.2500005000000000 O
   0.7500005000000001    0.5000000000000000    0.7500005000000001 O
   0.2500005000000000    0.2500005000000000    0.0000000000000000 O
   0.2500005000000000    0.2500005000000000    0.5000000000000000 O
   0.2500005000000000    0.7500005000000001    0.0000000000000000 O
   0.2500005000000000    0.7500005000000001    0.5000000000000000 O
   0.7500005000000001    0.2500005000000000    0.0000000000000000 O
   0.7500005000000001    0.2500005000000000    0.5000000000000000 O
   0.7500005000000001    0.7500005000000001    0.0000000000000000 O
   0.7500005000000001    0.7500005000000001    0.5000000000000000 O
