Mg7 B16
1.0
   6.1255244400000004    0.0000000000000000    0.0000000000000000
  -3.0627622199999980    5.3048590600000001    0.0000000000000000
   0.0000000000000000    0.0000000000000000    7.0417409600000003
Mg B
7 16
direct
   0.0000000000000000    0.0000000000000000    0.5000000000000000 Mg
   1.0000000000000000    0.4999999999999999    0.0000000000000000 Mg
   1.0000000000000000    0.4999999999999999    0.5000000000000000 Mg
   0.5000000000000000    0.0000000000000000    0.0000000000000000 Mg
   0.5000000000000000    0.0000000000000000    0.5000000000000000 Mg
   0.5000000000000000    0.4999999999999999    0.0000000000000000 Mg
   0.5000000000000000    0.4999999999999999    0.5000000000000000 Mg
   0.3333335000000000    0.1666665000000000    0.2500000000000000 B
   0.3333335000000000    0.1666665000000000    0.7500000000000001 B
   0.3333335000000000    0.6666664999999999    0.2500000000000000 B
   0.3333335000000000    0.6666664999999999    0.7500000000000001 B
   0.8333334999999999    0.1666665000000000    0.2500000000000000 B
   0.8333334999999999    0.1666665000000000    0.7500000000000001 B
   0.8333334999999999    0.6666664999999999    0.2500000000000000 B
   0.8333334999999999    0.6666664999999999    0.7500000000000001 B
   0.1666665000000000    0.3333334999999999    0.2500000000000000 B
   0.1666665000000000    0.3333334999999999    0.7500000000000001 B
   0.1666664999999999    0.8333334999999998    0.2500000000000000 B
   0.1666664999999999    0.8333334999999998    0.7500000000000001 B
   0.6666664999999999    0.3333334999999999    0.2500000000000000 B
   0.6666664999999999    0.3333334999999999    0.7500000000000001 B
   0.6666664999999999    0.8333334999999998    0.2500000000000000 B
   0.6666664999999999    0.8333334999999998    0.7500000000000001 B
