Irface
1.0
        8.2068996429         0.0000000000         0.0000000000
       -4.1034498215         7.1073835771         0.0000000000
        0.0000000000         0.0000000000        21.7008991241
   Ir
   36
Direct
     0.000000000         0.000000000         0.000000000
     0.222220004         0.111110002         0.102930002
     0.111110002         0.222220004         0.205860004
     0.000000000         0.000000000         0.308780015
     0.333330005         0.000000000         0.000000000
     0.555559993         0.111110002         0.102930002
     0.444440007         0.222220004         0.205860004
     0.333330005         0.000000000         0.308780015
     0.666670024         0.000000000         0.000000000
     0.888890028         0.111110002         0.102930002
     0.777779996         0.222220004         0.205860004
     0.666670024         0.000000000         0.308780015
     0.000000000         0.333330005         0.000000000
     0.222220004         0.444440007         0.102930002
     0.111110002         0.555559993         0.205860004
     0.000000000         0.333330005         0.308780015
     0.333330005         0.333330005         0.000000000
     0.555559993         0.444440007         0.102930002
     0.444440007         0.555559993         0.205860004
     0.333330005         0.333330005         0.308780015
     0.666670024         0.333330005         0.000000000
     0.888890028         0.444440007         0.102930002
     0.777779996         0.555559993         0.205860004
     0.666670024         0.333330005         0.308780015
     0.000000000         0.666670024         0.000000000
     0.222220004         0.777779996         0.102930002
     0.111110002         0.888890028         0.205860004
     0.000000000         0.666670024         0.308780015
     0.333330005         0.666670024         0.000000000
     0.555559993         0.777779996         0.102930002
     0.444440007         0.888890028         0.205860004
     0.333330005         0.666670024         0.308780015
     0.666670024         0.666670024         0.000000000
     0.888890028         0.777779996         0.102930002
     0.777779996         0.888890028         0.205860004
     0.666670024         0.666670024         0.308780015
