iryouhua
1.0
        8.2068996429         0.0000000000         0.0000000000
       -4.1034498215         7.1073835771         0.0000000000
        0.0000000000         0.0000000000        21.7008991241
   Ir    C    O
   36    1    1
Direct
     0.000010000         0.000000000         0.002390000
     0.222220004         0.111110002         0.103479996
     0.111110002         0.222220004         0.205270007
     0.000000000         0.000000000         0.306430012
     0.333339989         0.000000000         0.002390000
     0.555549979         0.111110002         0.103479996
     0.444440007         0.222220004         0.205259994
     0.333330005         0.000000000         0.306430012
     0.666660011         0.000000000         0.002390000
     0.888890028         0.111110002         0.103479996
     0.777779996         0.222220004         0.205259994
     0.666670024         0.000000000         0.306439996
     0.000000000         0.333330005         0.002390000
     0.222220004         0.444440007         0.103479996
     0.111110002         0.555559993         0.205270007
     0.000000000         0.333330005         0.306430012
     0.333330005         0.333330005         0.002390000
     0.555549979         0.444440007         0.103479996
     0.444440007         0.555549979         0.205270007
     0.333330005         0.333330005         0.306430012
     0.666660011         0.333319992         0.002390000
     0.888890028         0.444440007         0.103479996
     0.777779996         0.555559993         0.205270007
     0.666670024         0.333330005         0.306439996
     0.000010000         0.666670024         0.002390000
     0.222230002         0.777779996         0.103479996
     0.111110002         0.888890028         0.205270007
     0.000000000         0.666670024         0.306430012
     0.333330005         0.666670024         0.002390000
     0.555559993         0.777779996         0.103479996
     0.444440007         0.888890028         0.205259994
     0.333330005         0.666670024         0.306439996
     0.666660011         0.666670024         0.002380000
     0.888890028         0.777779996         0.103479996
     0.777779996         0.888890028         0.205270007
     0.666670024         0.666670024         0.306430012
     0.326469988         0.361369997         0.383329988
     0.326380014         0.368820012         0.442360014
