Al26
1.0
   7.4199870000000008    0.0000000000000000    4.2839309999999999
   2.4733289999999970    6.9956309999999995    4.2839309999999999
   0.0000000000000000    0.0000000000000000    8.5678649999999994
Al
26
direct
   0.0000000000000000    0.0000000000000000    0.3333333333333333 Al
   0.0000000000000000    0.0000000000000000    0.6666666666666666 Al
   1.0000000000000000    0.3333333333333333    1.0000000000000000 Al
   1.0000000000000000    0.3333333333333333    0.3333333333333333 Al
   1.0000000000000000    0.3333333333333333    0.6666666666666666 Al
   1.0000000000000000    0.6666666666666666    1.0000000000000000 Al
   1.0000000000000000    0.6666666666666666    0.3333333333333333 Al
   1.0000000000000000    0.6666666666666666    0.6666666666666665 Al
   0.3333333333333333    0.0000000000000000    1.0000000000000000 Al
   0.3333333333333333    0.0000000000000000    0.3333333333333333 Al
   0.3333333333333333    0.0000000000000000    0.6666666666666665 Al
   0.3333333333333334    0.3333333333333333    0.9999999999999999 Al
   0.3333333333333334    0.3333333333333333    0.3333333333333333 Al
   0.3333333333333334    0.3333333333333333    0.6666666666666665 Al
   0.3333333333333333    0.6666666666666666    0.0000000000000000 Al
   0.3333333333333333    0.6666666666666666    0.3333333333333334 Al
   0.3333333333333333    0.6666666666666666    0.6666666666666666 Al
   0.6666666666666666    0.0000000000000000    0.9999999999999999 Al
   0.6666666666666666    0.0000000000000000    0.3333333333333333 Al
   0.6666666666666666    0.0000000000000000    0.6666666666666665 Al
   0.6666666666666666    0.3333333333333333    0.0000000000000000 Al
   0.6666666666666666    0.3333333333333333    0.3333333333333334 Al
   0.6666666666666666    0.3333333333333333    0.6666666666666666 Al
   0.6666666666666667    0.6666666666666666    0.9999999999999999 Al
   0.6666666666666667    0.6666666666666666    0.3333333333333332 Al
   0.6666666666666667    0.6666666666666666    0.6666666666666665 Al
