oso2youhua
1.0
        6.4310998917         0.0000000000         0.0000000000
        0.0000000000        12.7552995682         0.0000000000
        0.0000000000         0.0000000000        26.5382003784
   Os    O    C
   32   57    1
Direct
     0.000040000         0.000000000         0.001670000
     0.000050000         0.250000000         0.120099999
     0.000050000         0.000000000         0.240569994
     0.000050000         0.250000000         0.358980000
     0.250050008         0.250000000         0.003060000
     0.250050008         0.000000000         0.120150000
     0.250059992         0.250000000         0.240529999
     0.250050008         0.000000000         0.357580006
     0.500039995         0.000000000         0.001670000
     0.500050008         0.250000000         0.120099999
     0.500050008         0.000000000         0.240569994
     0.500050008         0.250000000         0.358980000
     0.750060022         0.250000000         0.003060000
     0.750060022         0.000000000         0.120150000
     0.750060022         0.250000000         0.240529999
     0.750060022         0.000000000         0.357580006
     0.000050000         0.500000000         0.001670000
     0.000050000         0.750000000         0.120099999
     0.000050000         0.500000000         0.240569994
     0.000050000         0.750000000         0.358969986
     0.250050008         0.750000000         0.003060000
     0.250050008         0.500000000         0.120150000
     0.250070006         0.750000000         0.240529999
     0.250050008         0.500000000         0.357569993
     0.500050008         0.500000000         0.001670000
     0.500050008         0.750000000         0.120099999
     0.500050008         0.500000000         0.240569994
     0.500050008         0.750000000         0.358969986
     0.750050008         0.750000000         0.003060000
     0.750050008         0.500000000         0.120150000
     0.750060022         0.750000000         0.240529999
     0.750060022         0.500000000         0.357569993
     0.250050008         0.096280001         0.998300016
     0.250050008         0.345519990         0.119840004
     0.250050008         0.095530003         0.240779996
     0.250050008         0.346280009         0.362329990
     0.250050008         0.403719991         0.998300016
     0.250050008         0.154479995         0.119840004
     0.250050008         0.404469997         0.240779996
     0.250050008         0.153720006         0.362329990
     0.000050000         0.250000000         0.044440001
     0.000050000         0.000000000         0.166759998
     0.000060000         0.250010014         0.285840005
     0.000050000         0.000000000         0.074819997
     0.000050000         0.250000000         0.193949997
     0.000050000         0.000000000         0.316249996
     0.750039995         0.096280001         0.998300016
     0.750050008         0.345519990         0.119840004
     0.750050008         0.095540002         0.240779996
     0.750050008         0.346280009         0.362329990
     0.750050008         0.403719991         0.998300016
     0.750050008         0.154479995         0.119840004
     0.750050008         0.404469997         0.240779996
     0.750050008         0.153720006         0.362329990
     0.500050008         0.250000000         0.044440001
     0.500060022         0.000000000         0.166759998
     0.500060022         0.250000000         0.285840005
     0.500050008         0.000000000         0.074830003
     0.500050008         0.250000000         0.193949997
     0.500060022         0.000000000         0.316249996
     0.250050008         0.596279979         0.998300016
     0.250050008         0.845520020         0.119840004
     0.250050008         0.595529974         0.240779996
     0.250050008         0.846270025         0.362320006
     0.250050008         0.903720021         0.998300016
     0.250050008         0.654479980         0.119840004
     0.250050008         0.904460013         0.240779996
     0.250050008         0.653729975         0.362320006
     0.000050000         0.750000000         0.044440001
     0.000050000         0.500000000         0.166749999
     0.000060000         0.750000000         0.285829991
     0.000050000         0.500000000         0.074830003
     0.000060000         0.750000000         0.193949997
     0.000050000         0.500000000         0.316249996
     0.750050008         0.596279979         0.998300016
     0.750050008         0.845520020         0.119840004
     0.750050008         0.595529974         0.240779996
     0.750050008         0.846270025         0.362329990
     0.750039995         0.903720021         0.998300016
     0.750050008         0.654479980         0.119840004
     0.750050008         0.904460013         0.240779996
     0.750050008         0.653729975         0.362320006
     0.500050008         0.750000000         0.044440001
     0.500050008         0.500000000         0.166749999
     0.500060022         0.750000000         0.285840005
     0.500050008         0.500000000         0.074830003
     0.500060022         0.750000000         0.193949997
     0.500050008         0.500000000         0.316249996
     0.533460021         0.753989995         0.471289992
     0.532159984         0.755129993         0.425220013
