oso2face
1.0
        6.4310998917         0.0000000000         0.0000000000
        0.0000000000        12.7552995682         0.0000000000
        0.0000000000         0.0000000000        26.5382003784
   Os    O
   32   56
Direct
     0.000060000         0.000000000         0.000000000
     0.000060000         0.250000000         0.120209999
     0.000060000         0.000000000         0.240419999
     0.000060000         0.250000000         0.360630006
     0.250050008         0.250000000         0.000010000
     0.250050008         0.000000000         0.120219998
     0.250050008         0.250000000         0.240429997
     0.250050008         0.000000000         0.360639989
     0.500060022         0.000000000         0.000000000
     0.500060022         0.250000000         0.120209999
     0.500060022         0.000000000         0.240419999
     0.500060022         0.250000000         0.360630006
     0.750050008         0.250000000         0.000010000
     0.750050008         0.000000000         0.120219998
     0.750050008         0.250000000         0.240429997
     0.750050008         0.000000000         0.360639989
     0.000060000         0.500000000         0.000000000
     0.000060000         0.750000000         0.120209999
     0.000060000         0.500000000         0.240419999
     0.000060000         0.750000000         0.360630006
     0.250050008         0.750000000         0.000010000
     0.250050008         0.500000000         0.120219998
     0.250050008         0.750000000         0.240429997
     0.250050008         0.500000000         0.360639989
     0.500060022         0.500000000         0.000000000
     0.500060022         0.750000000         0.120209999
     0.500060022         0.500000000         0.240419999
     0.500060022         0.750000000         0.360630006
     0.750050008         0.750000000         0.000010000
     0.750050008         0.500000000         0.120219998
     0.750050008         0.750000000         0.240429997
     0.750050008         0.500000000         0.360639989
     0.250039995         0.095820002         0.000020000
     0.250050008         0.345820010         0.120229997
     0.250050008         0.095820002         0.240439996
     0.250050008         0.345820010         0.360650003
     0.250039995         0.404179990         0.000020000
     0.250050008         0.154180005         0.120229997
     0.250050008         0.404179990         0.240439996
     0.250050008         0.154180005         0.360650003
     0.000050000         0.250000000         0.046069998
     0.000050000         0.000000000         0.166280001
     0.000050000         0.250000000         0.286489993
     0.000050000         0.000000000         0.074150003
     0.000050000         0.250000000         0.194360003
     0.000060000         0.000000000         0.314570010
     0.750039995         0.095820002         0.000020000
     0.750050008         0.345820010         0.120229997
     0.750050008         0.095820002         0.240439996
     0.750050008         0.345820010         0.360650003
     0.750039995         0.404179990         0.000020000
     0.750050008         0.154180005         0.120229997
     0.750050008         0.404179990         0.240439996
     0.750050008         0.154180005         0.360650003
     0.500050008         0.250000000         0.046069998
     0.500050008         0.000000000         0.166280001
     0.500050008         0.250000000         0.286489993
     0.500050008         0.000000000         0.074150003
     0.500050008         0.250000000         0.194360003
     0.500060022         0.000000000         0.314570010
     0.250039995         0.595820010         0.000020000
     0.250050008         0.845820010         0.120229997
     0.250050008         0.595820010         0.240439996
     0.250050008         0.845820010         0.360650003
     0.250039995         0.904179990         0.000020000
     0.250050008         0.654179990         0.120229997
     0.250050008         0.904179990         0.240439996
     0.250050008         0.654179990         0.360650003
     0.000050000         0.750000000         0.046069998
     0.000050000         0.500000000         0.166280001
     0.000050000         0.750000000         0.286489993
     0.000050000         0.500000000         0.074150003
     0.000050000         0.750000000         0.194360003
     0.000060000         0.500000000         0.314570010
     0.750039995         0.595820010         0.000020000
     0.750050008         0.845820010         0.120229997
     0.750050008         0.595820010         0.240439996
     0.750050008         0.845820010         0.360650003
     0.750039995         0.904179990         0.000020000
     0.750050008         0.654179990         0.120229997
     0.750050008         0.904179990         0.240439996
     0.750050008         0.654179990         0.360650003
     0.500050008         0.750000000         0.046069998
     0.500050008         0.500000000         0.166280001
     0.500050008         0.750000000         0.286489993
     0.500050008         0.500000000         0.074150003
     0.500050008         0.750000000         0.194360003
     0.500060022         0.500000000         0.314570010
