Nb23 Sn8
1.0
  10.6491289600000005    0.0000000000000000    0.0000000000000000
   0.0000000000000000   10.6491289600000005    0.0000000000000000
   0.0000000000000000    0.0000000000000000    5.3245644800000003
Nb Sn
23 8
direct
   0.1250000000000000    0.5000000000000000    0.5000000000000000 Nb
   0.6250000000000000    0.0000000000000000    0.5000000000000000 Nb
   0.6250000000000000    0.5000000000000000    0.5000000000000000 Nb
   0.3750000000000001    0.0000000000000000    0.5000000000000000 Nb
   0.3750000000000001    0.5000000000000000    0.5000000000000000 Nb
   0.8750000000000000    0.0000000000000000    0.5000000000000000 Nb
   0.8750000000000000    0.5000000000000000    0.5000000000000000 Nb
   0.0000000000000000    0.2500000000000000    0.2500000000000000 Nb
   0.0000000000000000    0.7500000000000001    0.2500000000000000 Nb
   0.5000000000000000    0.2500000000000000    0.2500000000000000 Nb
   0.5000000000000000    0.7500000000000001    0.2500000000000000 Nb
   0.0000000000000000    0.2500000000000000    0.7500000000000001 Nb
   0.0000000000000000    0.7500000000000001    0.7500000000000001 Nb
   0.5000000000000000    0.2500000000000000    0.7500000000000001 Nb
   0.5000000000000000    0.7500000000000001    0.7500000000000001 Nb
   0.2500000000000000    0.3750000000000001    0.0000000000000000 Nb
   0.2500000000000000    0.8750000000000000    0.0000000000000000 Nb
   0.7500000000000001    0.3750000000000001    0.0000000000000000 Nb
   0.7500000000000001    0.8750000000000000    0.0000000000000000 Nb
   0.2500000000000000    0.1250000000000000    0.0000000000000000 Nb
   0.2500000000000000    0.6250000000000000    0.0000000000000000 Nb
   0.7500000000000001    0.1250000000000000    0.0000000000000000 Nb
   0.7500000000000001    0.6250000000000000    0.0000000000000000 Nb
   0.0000000000000000    0.0000000000000000    0.0000000000000000 Sn
   0.0000000000000000    0.5000000000000000    0.0000000000000000 Sn
   0.5000000000000000    0.0000000000000000    0.0000000000000000 Sn
   0.5000000000000000    0.5000000000000000    0.0000000000000000 Sn
   0.2500000000000000    0.2500000000000000    0.5000000000000000 Sn
   0.2500000000000000    0.7500000000000001    0.5000000000000000 Sn
   0.7500000000000001    0.2500000000000000    0.5000000000000000 Sn
   0.7500000000000001    0.7500000000000001    0.5000000000000000 Sn
