Ca7 C8 O24
1.0
   9.1687139799999997   -0.0337770600000000    8.8120927400000006
   3.7315155000000000    8.3750951800000006    8.8120927400000006
  -0.0261204700000000   -0.0168885300000000    6.3583698100000001
Ca C O
7 8 24
direct
   0.2499999999999999    0.7500000000000001    0.4999999999999998 Ca
   0.7500000000000001    0.2500000000000000    0.5000000000000000 Ca
   0.7500000000000002    0.7500000000000000    0.5000000000000003 Ca
   0.0000000000000000    0.0000000000000000    0.0000000000000000 Ca
   0.0000000000000000    0.5000000000000000    1.0000000000000000 Ca
   0.5000000000000000    1.0000000000000000    0.0000000000000001 Ca
   0.5000000000000001    0.5000000000000000    1.0000000000000000 Ca
   0.3750000000000000    0.3750000000000001    0.7500000000000000 C
   0.3750000000000001    0.8750000000000001    0.7499999999999998 C
   0.8750000000000000    0.3750000000000000    0.7500000000000002 C
   0.8750000000000000    0.8750000000000001    0.7500000000000004 C
   0.1250000000000000    0.1250000000000000    0.2500000000000000 C
   0.1250000000000000    0.6250000000000000    0.2500000000000002 C
   0.6250000000000000    0.1250000000000000    0.2500000000000002 C
   0.6250000000000001    0.6250000000000000    0.2499999999999999 C
   0.3750000000000000    0.2460838550000000    0.0078322899999999 O
   0.3750000000000001    0.7460838550000000    0.0078322900000000 O
   0.8750000000000000    0.2460838550000000    0.0078322900000003 O
   0.8750000000000001    0.7460838550000002    0.0078322900000003 O
   0.0039161450000000    0.3749999999999999    0.4921677100000000 O
   0.0039161449999999    0.8750000000000000    0.4921677100000000 O
   0.5039161450000000    0.3750000000000000    0.4921677100000002 O
   0.5039161450000000    0.8750000000000000    0.4921677100000002 O
   0.2539161450000000    0.4960838550000001    0.2500000000000002 O
   0.2539161450000000    0.9960838550000002    0.2499999999999999 O
   0.7539161450000000    0.4960838550000000    0.2500000000000004 O
   0.7539161449999999    0.9960838550000000    0.2500000000000001 O
   0.1250000000000000    0.2539161450000000    0.9921677099999998 O
   0.1250000000000000    0.7539161450000000    0.9921677099999998 O
   0.6250000000000000    0.2539161450000000    0.9921677099999998 O
   0.6250000000000000    0.7539161450000000    0.9921677100000000 O
   0.4960838550000001    0.1250000000000000    0.5078322900000002 O
   0.4960838550000000    0.6250000000000001    0.5078322900000002 O
   0.9960838550000000    0.1250000000000000    0.5078322900000002 O
   0.9960838550000002    0.6250000000000000    0.5078322900000002 O
   0.2460838550000000    0.0039161450000000    0.7500000000000001 O
   0.2460838550000000    0.5039161449999999    0.7500000000000000 O
   0.7460838550000000    0.0039161450000000    0.7500000000000002 O
   0.7460838550000000    0.5039161450000000    0.7500000000000002 O
