Nb11 N12
1.0
  -6.6787019999999995   -6.6787019999999995    0.0000000000000000
  -4.4524679999999996    0.0000000000000000   -4.4524679999999996
   0.0000000000000000   -4.4524679999999996   -4.4524679999999996
Nb N
11 12
direct
   0.1666666666666667    0.2500000000000000    0.7500000000000000 Nb
   0.1666666666666667    0.7500000000000000    0.2500000000000000 Nb
   0.1666666666666666    0.7500000000000000    0.7500000000000000 Nb
   0.4999999999999999    0.2500000000000000    0.2500000000000000 Nb
   0.5000000000000000    0.2500000000000000    0.7500000000000000 Nb
   0.5000000000000000    0.7500000000000000    0.2500000000000000 Nb
   0.5000000000000000    0.7500000000000000    0.7500000000000000 Nb
   0.8333333333333334    0.2500000000000000    0.2500000000000000 Nb
   0.8333333333333334    0.2500000000000000    0.7500000000000000 Nb
   0.8333333333333334    0.7500000000000000    0.2500000000000001 Nb
   0.8333333333333333    0.7500000000000000    0.7500000000000000 Nb
   0.0000000000000000    0.0000000000000000    0.0000000000000000 N
   1.0000000000000000    0.0000000000000000    0.5000000000000000 N
   1.0000000000000000    0.5000000000000000    0.0000000000000000 N
   1.0000000000000000    0.5000000000000000    0.5000000000000000 N
   0.3333333333333333    1.0000000000000000    0.0000000000000000 N
   0.3333333333333333    0.0000000000000000    0.5000000000000000 N
   0.3333333333333333    0.5000000000000000    0.0000000000000000 N
   0.3333333333333333    0.5000000000000000    0.5000000000000000 N
   0.6666666666666666    1.0000000000000000    0.0000000000000000 N
   0.6666666666666667    0.0000000000000000    0.5000000000000000 N
   0.6666666666666667    0.5000000000000000    0.0000000000000000 N
   0.6666666666666666    0.5000000000000000    0.5000000000000000 N
