In1 Ga1 P2
1.0
   6.7368079999999999   -2.0273720000000002    0.0000000000000000
   6.7368079999999999    2.0273720000000002    0.0000000000000000
   6.1266920000000002    0.0000000000000000    3.4581010000000001
In Ga P
1 1 2
direct
   0.5002470000000000    0.5002470000000000    0.5002470000000000 In
   0.0002189999999990    0.0002189999999990    0.0002189999999990 Ga
   0.1195750000000000    0.1195750000000000    0.1195750000000000 P
   0.6299580000000000    0.6299580000000000    0.6299580000000000 P
